# vtk DataFile Version 3.0
 BEAM 

ASCII
DATASET UNSTRUCTURED_GRID
POINTS       169 double
      3.000000e+01     -1.000000e+01      1.414214e+01
      2.000000e+01     -2.000000e+01      0.000000e+00
      1.000000e+01     -3.000000e+01      1.414214e+01
      2.000000e+01     -4.000000e+01      0.000000e+00
      0.000000e+00     -4.000000e+01      0.000000e+00
     -2.000000e+01     -4.000000e+01      0.000000e+00
     -2.000000e+01     -2.000000e+01      0.000000e+00
     -1.000000e+01     -1.000000e+01      1.414214e+01
      0.000000e+00      0.000000e+00      0.000000e+00
     -1.000000e+01      1.000000e+01      1.414214e+01
      0.000000e+00      2.000000e+01      0.000000e+00
      1.000000e+01      1.000000e+01      1.414214e+01
      1.000000e+01      3.000000e+01      1.414214e+01
      2.000000e+01      4.000000e+01      0.000000e+00
      4.000000e+01      4.000000e+01      0.000000e+00
      3.000000e+01      3.000000e+01      1.414214e+01
      4.000000e+01      2.000000e+01      0.000000e+00
      2.000000e+01      2.000000e+01      0.000000e+00
      2.000000e+01      0.000000e+00      0.000000e+00
      4.000000e+01     -2.000000e+01      0.000000e+00
      4.000000e+01      0.000000e+00      0.000000e+00
      3.000000e+01      1.000000e+01      1.414214e+01
      0.000000e+00     -2.000000e+01      0.000000e+00
     -1.000000e+01     -3.000000e+01      1.414214e+01
      4.000000e+01     -4.000000e+01      0.000000e+00
      3.000000e+01     -3.000000e+01      1.414214e+01
      1.000000e+01     -1.000000e+01      1.414214e+01
     -3.000000e+01     -3.000000e+01      1.414214e+01
     -4.000000e+01     -2.000000e+01      0.000000e+00
     -3.000000e+01     -1.000000e+01      1.414214e+01
     -4.000000e+01      0.000000e+00      0.000000e+00
     -3.000000e+01      1.000000e+01      1.414214e+01
     -4.000000e+01      2.000000e+01      0.000000e+00
     -3.000000e+01      3.000000e+01      1.414214e+01
     -2.000000e+01      4.000000e+01      0.000000e+00
      0.000000e+00      4.000000e+01      0.000000e+00
     -2.000000e+01      0.000000e+00      0.000000e+00
     -2.000000e+01      2.000000e+01      0.000000e+00
     -1.000000e+01      3.000000e+01      1.414214e+01
     -4.000000e+01     -4.000000e+01      0.000000e+00
     -4.000000e+01      4.000000e+01      0.000000e+00
      2.500000e+01     -1.500000e+01      7.071068e+00
      1.500000e+01     -2.500000e+01      7.071068e+00
      1.500000e+01     -3.500000e+01      7.071068e+00
      1.000000e+01     -4.000000e+01      0.000000e+00
     -1.000000e+01     -4.000000e+01      0.000000e+00
     -2.000000e+01     -3.000000e+01      0.000000e+00
     -1.500000e+01     -1.500000e+01      7.071068e+00
     -5.000000e+00     -5.000000e+00      7.071068e+00
     -5.000000e+00      5.000000e+00      7.071068e+00
     -5.000000e+00      1.500000e+01      7.071068e+00
      5.000000e+00      1.500000e+01      7.071068e+00
      1.000000e+01      2.000000e+01      1.414214e+01
      1.500000e+01      3.500000e+01      7.071068e+00
      3.000000e+01      4.000000e+01      0.000000e+00
      3.500000e+01      3.500000e+01      7.071068e+00
      3.500000e+01      2.500000e+01      7.071068e+00
      3.000000e+01      2.000000e+01      0.000000e+00
      2.000000e+01      1.000000e+01      0.000000e+00
      2.000000e+01     -1.000000e+01      0.000000e+00
      3.000000e+01     -2.000000e+01      0.000000e+00
      4.000000e+01     -1.000000e+01      0.000000e+00
      4.000000e+01      1.000000e+01      0.000000e+00
      3.500000e+01      1.500000e+01      7.071068e+00
      2.500000e+01      1.500000e+01      7.071068e+00
      2.500000e+01      2.500000e+01      7.071068e+00
      2.500000e+01      3.500000e+01      7.071068e+00
      3.500000e+01     -1.500000e+01      7.071068e+00
      3.500000e+01     -5.000000e+00      7.071068e+00
      1.000000e+01     -2.000000e+01      0.000000e+00
      0.000000e+00     -3.000000e+01      0.000000e+00
      5.000000e+00     -3.500000e+01      7.071068e+00
      5.000000e+00     -2.500000e+01      7.071068e+00
     -5.000000e+00     -2.500000e+01      7.071068e+00
     -5.000000e+00     -3.500000e+01      7.071068e+00
      3.000000e+01     -4.000000e+01      0.000000e+00
      2.000000e+01     -3.000000e+01      0.000000e+00
      2.500000e+01     -2.500000e+01      7.071068e+00
      3.000000e+01     -2.000000e+01      1.414214e+01
      2.000000e+01     -1.000000e+01      1.414214e+01
      1.000000e+01      0.000000e+00      1.414214e+01
      1.500000e+01      5.000000e+00      7.071068e+00
      2.500000e+01      5.000000e+00      7.071068e+00
      3.500000e+01      5.000000e+00      7.071068e+00
     -1.500000e+01     -3.500000e+01      7.071068e+00
     -1.500000e+01     -2.500000e+01      7.071068e+00
     -2.500000e+01     -2.500000e+01      7.071068e+00
     -3.500000e+01     -2.500000e+01      7.071068e+00
     -3.500000e+01     -1.500000e+01      7.071068e+00
     -3.500000e+01     -5.000000e+00      7.071068e+00
     -3.500000e+01      5.000000e+00      7.071068e+00
     -3.500000e+01      1.500000e+01      7.071068e+00
     -3.500000e+01      2.500000e+01      7.071068e+00
     -2.500000e+01      3.500000e+01      7.071068e+00
     -1.000000e+01      4.000000e+01      0.000000e+00
      1.000000e+01      4.000000e+01      0.000000e+00
      2.000000e+01      3.000000e+01      0.000000e+00
     -5.000000e+00     -1.500000e+01      7.071068e+00
     -1.500000e+01     -5.000000e+00      7.071068e+00
     -1.500000e+01      5.000000e+00      7.071068e+00
      5.000000e+00      5.000000e+00      7.071068e+00
      1.500000e+01      1.500000e+01      7.071068e+00
     -1.500000e+01      1.500000e+01      7.071068e+00
     -1.000000e+01      2.000000e+01      1.414214e+01
     -5.000000e+00      3.500000e+01      7.071068e+00
      5.000000e+00      2.500000e+01      7.071068e+00
      5.000000e+00      3.500000e+01      7.071068e+00
      0.000000e+00      1.000000e+01      1.414214e+01
     -1.000000e+01      0.000000e+00      1.414214e+01
     -2.000000e+01     -1.000000e+01      1.414214e+01
     -3.000000e+01     -2.000000e+01      1.414214e+01
     -2.000000e+01     -3.000000e+01      1.414214e+01
     -1.000000e+01     -2.000000e+01      1.414214e+01
      1.500000e+01      2.500000e+01      7.071068e+00
      4.000000e+01      3.000000e+01      0.000000e+00
      1.500000e+01     -5.000000e+00      7.071068e+00
      5.000000e+00     -1.500000e+01      7.071068e+00
      4.000000e+01     -3.000000e+01      0.000000e+00
      3.000000e+01      0.000000e+00      0.000000e+00
      1.000000e+01      0.000000e+00      0.000000e+00
      0.000000e+00     -1.000000e+01      0.000000e+00
      2.000000e+01      1.000000e+01      1.414214e+01
      3.000000e+01      0.000000e+00      1.414214e+01
      2.000000e+01      3.000000e+01      1.414214e+01
      3.500000e+01     -2.500000e+01      7.071068e+00
      2.500000e+01     -5.000000e+00      7.071068e+00
      0.000000e+00     -3.000000e+01      1.414214e+01
     -1.000000e+01     -2.000000e+01      0.000000e+00
      3.500000e+01     -3.500000e+01      7.071068e+00
      2.500000e+01     -3.500000e+01      7.071068e+00
      1.500000e+01     -1.500000e+01      7.071068e+00
      2.000000e+01     -3.000000e+01      1.414214e+01
      1.000000e+01     -2.000000e+01      1.414214e+01
      0.000000e+00     -1.000000e+01      1.414214e+01
     -2.500000e+01     -3.500000e+01      7.071068e+00
     -3.500000e+01     -3.500000e+01      7.071068e+00
     -3.000000e+01     -4.000000e+01      0.000000e+00
     -2.500000e+01     -1.500000e+01      7.071068e+00
     -2.500000e+01     -5.000000e+00      7.071068e+00
     -2.500000e+01      5.000000e+00      7.071068e+00
     -2.500000e+01      1.500000e+01      7.071068e+00
     -1.500000e+01      2.500000e+01      7.071068e+00
     -1.500000e+01      3.500000e+01      7.071068e+00
     -4.000000e+01     -1.000000e+01      0.000000e+00
     -4.000000e+01     -3.000000e+01      0.000000e+00
     -3.000000e+01      0.000000e+00      1.414214e+01
     -3.000000e+01      2.000000e+01      1.414214e+01
     -2.500000e+01      2.500000e+01      7.071068e+00
     -3.000000e+01      2.000000e+01      0.000000e+00
     -4.000000e+01      1.000000e+01      0.000000e+00
     -3.500000e+01      3.500000e+01      7.071068e+00
     -3.000000e+01      4.000000e+01      0.000000e+00
     -2.000000e+01      3.000000e+01      0.000000e+00
     -1.000000e+01      2.000000e+01      0.000000e+00
      0.000000e+00      3.000000e+01      0.000000e+00
     -1.000000e+01      0.000000e+00      0.000000e+00
     -2.000000e+01      1.000000e+01      0.000000e+00
     -2.000000e+01      1.000000e+01      1.414214e+01
     -5.000000e+00      2.500000e+01      7.071068e+00
      0.000000e+00      3.000000e+01      1.414214e+01
      1.000000e+01      2.000000e+01      0.000000e+00
      5.000000e+00     -5.000000e+00      7.071068e+00
      3.000000e+01      2.000000e+01      1.414214e+01
     -2.000000e+01     -1.000000e+01      0.000000e+00
     -3.000000e+01      0.000000e+00      0.000000e+00
     -3.000000e+01     -2.000000e+01      0.000000e+00
     -4.000000e+01      3.000000e+01      0.000000e+00
     -2.000000e+01      3.000000e+01      1.414214e+01
      0.000000e+00      1.000000e+01      0.000000e+00
CELLS     256  768
2       0   41
2      41    1
2       2   42
2      42    1
2       2   43
2      43    3
2       3   44
2      44    4
2       4   45
2      45    5
2       6   46
2      46    5
2       7   47
2      47    6
2       7   48
2      48    8
2       9   49
2      49    8
2       9   50
2      50   10
2      11   51
2      51   10
2      12   52
2      52   11
2      12   53
2      53   13
2      13   54
2      54   14
2      15   55
2      55   14
2      15   56
2      56   16
2      17   57
2      57   16
2      17   58
2      58   18
2      18   59
2      59    1
2       1   60
2      60   19
2      20   61
2      61   19
2      16   62
2      62   20
2      21   63
2      63   16
2      21   64
2      64   17
2      15   65
2      65   17
2      15   66
2      66   13
2       0   67
2      67   19
2       0   68
2      68   20
2      22   69
2      69    1
2      22   70
2      70    4
2       2   71
2      71    4
2       2   72
2      72   22
2      23   73
2      73   22
2      23   74
2      74    4
2      24   75
2      75    3
2       1   76
2      76    3
2      25   77
2      77    1
2      25   78
2      78    0
2      26   79
2      79    0
2      11   80
2      80   26
2      11   81
2      81   18
2      21   82
2      82   18
2      21   83
2      83   20
2      23   84
2      84    5
2      23   85
2      85    6
2      27   86
2      86    6
2      27   87
2      87   28
2      29   88
2      88   28
2      29   89
2      89   30
2      31   90
2      90   30
2      31   91
2      91   32
2      33   92
2      92   32
2      34   93
2      93   33
2      34   94
2      94   35
2      35   95
2      95   13
2      13   96
2      96   17
2       7   97
2      97   22
2       7   98
2      98   36
2       9   99
2      99   36
2      11  100
2     100    8
2      11  101
2     101   17
2       9  102
2     102   37
2      38  103
2     103    9
2      38  104
2     104   35
2      12  105
2     105   10
2      12  106
2     106   35
2       9  107
2     107   11
2       9  108
2     108    7
2      29  109
2     109    7
2      29  110
2     110   27
2      27  111
2     111   23
2       7  112
2     112   23
2      12  113
2     113   17
2      14  114
2     114   16
2      26  115
2     115   18
2      26  116
2     116   22
2      19  117
2     117   24
2      18  118
2     118   20
2       8  119
2     119   18
2       8  120
2     120   22
2      11  121
2     121   21
2       0  122
2     122   21
2      15  123
2     123   12
2      25  124
2     124   19
2       0  125
2     125   18
2      23  126
2     126    2
2       6  127
2     127   22
2      25  128
2     128   24
2      25  129
2     129    3
2       1  130
2     130   26
2       2  131
2     131   25
2      26  132
2     132    2
2       7  133
2     133   26
2      27  134
2     134    5
2      27  135
2     135   39
2       5  136
2     136   39
2      29  137
2     137    6
2      29  138
2     138   36
2      31  139
2     139   36
2      31  140
2     140   37
2      38  141
2     141   37
2      38  142
2     142   34
2      30  143
2     143   28
2      39  144
2     144   28
2      31  145
2     145   29
2      33  146
2     146   31
2      33  147
2     147   37
2      32  148
2     148   37
2      32  149
2     149   30
2      40  150
2     150   33
2      40  151
2     151   34
2      34  152
2     152   37
2      37  153
2     153   10
2      35  154
2     154   10
2      36  155
2     155    8
2      37  156
2     156   36
2      31  157
2     157    9
2      38  158
2     158   10
2      12  159
2     159   38
2      10  160
2     160   17
2      26  161
2     161    8
2      21  162
2     162   15
2      36  163
2     163    6
2      30  164
2     164   36
2      28  165
2     165    6
2      32  166
2     166   40
2      38  167
2     167   33
2      10  168
2     168    8
 CELL_TYPES     256
 3
 3
 3
 3
 3
 3
 3
 3
 3
 3
 3
 3
 3
 3
 3
 3
 3
 3
 3
 3
 3
 3
 3
 3
 3
 3
 3
 3
 3
 3
 3
 3
 3
 3
 3
 3
 3
 3
 3
 3
 3
 3
 3
 3
 3
 3
 3
 3
 3
 3
 3
 3
 3
 3
 3
 3
 3
 3
 3
 3
 3
 3
 3
 3
 3
 3
 3
 3
 3
 3
 3
 3
 3
 3
 3
 3
 3
 3
 3
 3
 3
 3
 3
 3
 3
 3
 3
 3
 3
 3
 3
 3
 3
 3
 3
 3
 3
 3
 3
 3
 3
 3
 3
 3
 3
 3
 3
 3
 3
 3
 3
 3
 3
 3
 3
 3
 3
 3
 3
 3
 3
 3
 3
 3
 3
 3
 3
 3
 3
 3
 3
 3
 3
 3
 3
 3
 3
 3
 3
 3
 3
 3
 3
 3
 3
 3
 3
 3
 3
 3
 3
 3
 3
 3
 3
 3
 3
 3
 3
 3
 3
 3
 3
 3
 3
 3
 3
 3
 3
 3
 3
 3
 3
 3
 3
 3
 3
 3
 3
 3
 3
 3
 3
 3
 3
 3
 3
 3
 3
 3
 3
 3
 3
 3
 3
 3
 3
 3
 3
 3
 3
 3
 3
 3
 3
 3
 3
 3
 3
 3
 3
 3
 3
 3
 3
 3
 3
 3
 3
 3
 3
 3
 3
 3
 3
 3
 3
 3
 3
 3
 3
 3
 3
 3
 3
 3
 3
 3
 3
 3
 3
 3
 3
 3
 3
 3
 3
 3
 3
 3
 3
 3
 3
 3
 3
 3
CELL_DATA     256
POINT_DATA     169
FIELD Result          3
Displacement_Load_Case01            3           169 double
      0.000000e+00      0.000000e+00      0.000000e+00
      0.000000e+00      0.000000e+00      0.000000e+00
      0.000000e+00      0.000000e+00      0.000000e+00
      0.000000e+00      0.000000e+00      0.000000e+00
      0.000000e+00      0.000000e+00      0.000000e+00
      0.000000e+00      0.000000e+00      0.000000e+00
      0.000000e+00      0.000000e+00      0.000000e+00
      0.000000e+00      0.000000e+00      0.000000e+00
      0.000000e+00      0.000000e+00      0.000000e+00
      0.000000e+00      0.000000e+00      0.000000e+00
      0.000000e+00      0.000000e+00      0.000000e+00
      0.000000e+00      0.000000e+00      0.000000e+00
      0.000000e+00      0.000000e+00      0.000000e+00
      0.000000e+00      0.000000e+00      0.000000e+00
      0.000000e+00      0.000000e+00      0.000000e+00
      0.000000e+00      0.000000e+00      0.000000e+00
      0.000000e+00      0.000000e+00      0.000000e+00
      0.000000e+00      0.000000e+00      0.000000e+00
      0.000000e+00      0.000000e+00      0.000000e+00
      0.000000e+00      0.000000e+00      0.000000e+00
      0.000000e+00      0.000000e+00      0.000000e+00
      0.000000e+00      0.000000e+00      0.000000e+00
      0.000000e+00      0.000000e+00      0.000000e+00
      0.000000e+00      0.000000e+00      0.000000e+00
      0.000000e+00      0.000000e+00      0.000000e+00
      0.000000e+00      0.000000e+00      0.000000e+00
      0.000000e+00      0.000000e+00      0.000000e+00
      0.000000e+00      0.000000e+00      0.000000e+00
      0.000000e+00      0.000000e+00      0.000000e+00
      0.000000e+00      0.000000e+00      0.000000e+00
      0.000000e+00      0.000000e+00      0.000000e+00
      0.000000e+00      0.000000e+00      0.000000e+00
      0.000000e+00      0.000000e+00      0.000000e+00
      0.000000e+00      0.000000e+00      0.000000e+00
      0.000000e+00      0.000000e+00      0.000000e+00
      0.000000e+00      0.000000e+00      0.000000e+00
      0.000000e+00      0.000000e+00      0.000000e+00
      0.000000e+00      0.000000e+00      0.000000e+00
      0.000000e+00      0.000000e+00      0.000000e+00
      0.000000e+00      0.000000e+00      0.000000e+00
      0.000000e+00      0.000000e+00      0.000000e+00
      0.000000e+00      0.000000e+00      0.000000e+00
      0.000000e+00      0.000000e+00      0.000000e+00
      0.000000e+00      0.000000e+00      0.000000e+00
      0.000000e+00      0.000000e+00      0.000000e+00
      0.000000e+00      0.000000e+00      0.000000e+00
      0.000000e+00      0.000000e+00      0.000000e+00
      0.000000e+00      0.000000e+00      0.000000e+00
      0.000000e+00      0.000000e+00      0.000000e+00
      0.000000e+00      0.000000e+00      0.000000e+00
      0.000000e+00      0.000000e+00      0.000000e+00
      0.000000e+00      0.000000e+00      0.000000e+00
      0.000000e+00      0.000000e+00      0.000000e+00
      0.000000e+00      0.000000e+00      0.000000e+00
      0.000000e+00      0.000000e+00      0.000000e+00
      0.000000e+00      0.000000e+00      0.000000e+00
      0.000000e+00      0.000000e+00      0.000000e+00
      0.000000e+00      0.000000e+00      0.000000e+00
      0.000000e+00      0.000000e+00      0.000000e+00
      0.000000e+00      0.000000e+00      0.000000e+00
      0.000000e+00      0.000000e+00      0.000000e+00
      0.000000e+00      0.000000e+00      0.000000e+00
      0.000000e+00      0.000000e+00      0.000000e+00
      0.000000e+00      0.000000e+00      0.000000e+00
      0.000000e+00      0.000000e+00      0.000000e+00
      0.000000e+00      0.000000e+00      0.000000e+00
      0.000000e+00      0.000000e+00      0.000000e+00
      0.000000e+00      0.000000e+00      0.000000e+00
      0.000000e+00      0.000000e+00      0.000000e+00
      0.000000e+00      0.000000e+00      0.000000e+00
      0.000000e+00      0.000000e+00      0.000000e+00
      0.000000e+00      0.000000e+00      0.000000e+00
      0.000000e+00      0.000000e+00      0.000000e+00
      0.000000e+00      0.000000e+00      0.000000e+00
      0.000000e+00      0.000000e+00      0.000000e+00
      0.000000e+00      0.000000e+00      0.000000e+00
      0.000000e+00      0.000000e+00      0.000000e+00
      0.000000e+00      0.000000e+00      0.000000e+00
      0.000000e+00      0.000000e+00      0.000000e+00
      0.000000e+00      0.000000e+00      0.000000e+00
      0.000000e+00      0.000000e+00      0.000000e+00
      0.000000e+00      0.000000e+00      0.000000e+00
      0.000000e+00      0.000000e+00      0.000000e+00
      0.000000e+00      0.000000e+00      0.000000e+00
      0.000000e+00      0.000000e+00      0.000000e+00
      0.000000e+00      0.000000e+00      0.000000e+00
      0.000000e+00      0.000000e+00      0.000000e+00
      0.000000e+00      0.000000e+00      0.000000e+00
      0.000000e+00      0.000000e+00      0.000000e+00
      0.000000e+00      0.000000e+00      0.000000e+00
      0.000000e+00      0.000000e+00      0.000000e+00
      0.000000e+00      0.000000e+00      0.000000e+00
      0.000000e+00      0.000000e+00      0.000000e+00
      0.000000e+00      0.000000e+00      0.000000e+00
      0.000000e+00      0.000000e+00      0.000000e+00
      0.000000e+00      0.000000e+00      0.000000e+00
      0.000000e+00      0.000000e+00      0.000000e+00
      0.000000e+00      0.000000e+00      0.000000e+00
      0.000000e+00      0.000000e+00      0.000000e+00
      0.000000e+00      0.000000e+00      0.000000e+00
      0.000000e+00      0.000000e+00      0.000000e+00
      0.000000e+00      0.000000e+00      0.000000e+00
      0.000000e+00      0.000000e+00      0.000000e+00
      0.000000e+00      0.000000e+00      0.000000e+00
      0.000000e+00      0.000000e+00      0.000000e+00
      0.000000e+00      0.000000e+00      0.000000e+00
      0.000000e+00      0.000000e+00      0.000000e+00
      0.000000e+00      0.000000e+00      0.000000e+00
      0.000000e+00      0.000000e+00      0.000000e+00
      0.000000e+00      0.000000e+00      0.000000e+00
      0.000000e+00      0.000000e+00      0.000000e+00
      0.000000e+00      0.000000e+00      0.000000e+00
      0.000000e+00      0.000000e+00      0.000000e+00
      0.000000e+00      0.000000e+00      0.000000e+00
      0.000000e+00      0.000000e+00      0.000000e+00
      0.000000e+00      0.000000e+00      0.000000e+00
      0.000000e+00      0.000000e+00      0.000000e+00
      0.000000e+00      0.000000e+00      0.000000e+00
      0.000000e+00      0.000000e+00      0.000000e+00
      0.000000e+00      0.000000e+00      0.000000e+00
      0.000000e+00      0.000000e+00      0.000000e+00
      0.000000e+00      0.000000e+00      0.000000e+00
      0.000000e+00      0.000000e+00      0.000000e+00
      0.000000e+00      0.000000e+00      0.000000e+00
      0.000000e+00      0.000000e+00      0.000000e+00
      0.000000e+00      0.000000e+00      0.000000e+00
      0.000000e+00      0.000000e+00      0.000000e+00
      0.000000e+00      0.000000e+00      0.000000e+00
      0.000000e+00      0.000000e+00      0.000000e+00
      0.000000e+00      0.000000e+00      0.000000e+00
      0.000000e+00      0.000000e+00      0.000000e+00
      0.000000e+00      0.000000e+00      0.000000e+00
      0.000000e+00      0.000000e+00      0.000000e+00
      0.000000e+00      0.000000e+00      0.000000e+00
      0.000000e+00      0.000000e+00      0.000000e+00
      0.000000e+00      0.000000e+00      0.000000e+00
      0.000000e+00      0.000000e+00      0.000000e+00
      0.000000e+00      0.000000e+00      0.000000e+00
      0.000000e+00      0.000000e+00      0.000000e+00
      0.000000e+00      0.000000e+00      0.000000e+00
      0.000000e+00      0.000000e+00      0.000000e+00
      0.000000e+00      0.000000e+00      0.000000e+00
      0.000000e+00      0.000000e+00      0.000000e+00
      0.000000e+00      0.000000e+00      0.000000e+00
      0.000000e+00      0.000000e+00      0.000000e+00
      0.000000e+00      0.000000e+00      0.000000e+00
      0.000000e+00      0.000000e+00      0.000000e+00
      0.000000e+00      0.000000e+00      0.000000e+00
      0.000000e+00      0.000000e+00      0.000000e+00
      0.000000e+00      0.000000e+00      0.000000e+00
      0.000000e+00      0.000000e+00      0.000000e+00
      0.000000e+00      0.000000e+00      0.000000e+00
      0.000000e+00      0.000000e+00      0.000000e+00
      0.000000e+00      0.000000e+00      0.000000e+00
      0.000000e+00      0.000000e+00      0.000000e+00
      0.000000e+00      0.000000e+00      0.000000e+00
      0.000000e+00      0.000000e+00      0.000000e+00
      0.000000e+00      0.000000e+00      0.000000e+00
      0.000000e+00      0.000000e+00      0.000000e+00
      0.000000e+00      0.000000e+00      0.000000e+00
      0.000000e+00      0.000000e+00      0.000000e+00
      0.000000e+00      0.000000e+00      0.000000e+00
      0.000000e+00      0.000000e+00      0.000000e+00
      0.000000e+00      0.000000e+00      0.000000e+00
      0.000000e+00      0.000000e+00      0.000000e+00
      0.000000e+00      0.000000e+00      0.000000e+00
      0.000000e+00      0.000000e+00      0.000000e+00
      0.000000e+00      0.000000e+00      0.000000e+00
      0.000000e+00      0.000000e+00      0.000000e+00
Rotation_Load_Case01            3         169 double
      0.000000e+00      0.000000e+00      0.000000e+00
      0.000000e+00      0.000000e+00      0.000000e+00
      0.000000e+00      0.000000e+00      0.000000e+00
      0.000000e+00      0.000000e+00      0.000000e+00
      0.000000e+00      0.000000e+00      0.000000e+00
      0.000000e+00      0.000000e+00      0.000000e+00
      0.000000e+00      0.000000e+00      0.000000e+00
      0.000000e+00      0.000000e+00      0.000000e+00
      0.000000e+00      0.000000e+00      0.000000e+00
      0.000000e+00      0.000000e+00      0.000000e+00
      0.000000e+00      0.000000e+00      0.000000e+00
      0.000000e+00      0.000000e+00      0.000000e+00
      0.000000e+00      0.000000e+00      0.000000e+00
      0.000000e+00      0.000000e+00      0.000000e+00
      0.000000e+00      0.000000e+00      0.000000e+00
      0.000000e+00      0.000000e+00      0.000000e+00
      0.000000e+00      0.000000e+00      0.000000e+00
      0.000000e+00      0.000000e+00      0.000000e+00
      0.000000e+00      0.000000e+00      0.000000e+00
      0.000000e+00      0.000000e+00      0.000000e+00
      0.000000e+00      0.000000e+00      0.000000e+00
      0.000000e+00      0.000000e+00      0.000000e+00
      0.000000e+00      0.000000e+00      0.000000e+00
      0.000000e+00      0.000000e+00      0.000000e+00
      0.000000e+00      0.000000e+00      0.000000e+00
      0.000000e+00      0.000000e+00      0.000000e+00
      0.000000e+00      0.000000e+00      0.000000e+00
      0.000000e+00      0.000000e+00      0.000000e+00
      0.000000e+00      0.000000e+00      0.000000e+00
      0.000000e+00      0.000000e+00      0.000000e+00
      0.000000e+00      0.000000e+00      0.000000e+00
      0.000000e+00      0.000000e+00      0.000000e+00
      0.000000e+00      0.000000e+00      0.000000e+00
      0.000000e+00      0.000000e+00      0.000000e+00
      0.000000e+00      0.000000e+00      0.000000e+00
      0.000000e+00      0.000000e+00      0.000000e+00
      0.000000e+00      0.000000e+00      0.000000e+00
      0.000000e+00      0.000000e+00      0.000000e+00
      0.000000e+00      0.000000e+00      0.000000e+00
      0.000000e+00      0.000000e+00      0.000000e+00
      0.000000e+00      0.000000e+00      0.000000e+00
      0.000000e+00      0.000000e+00      0.000000e+00
      0.000000e+00      0.000000e+00      0.000000e+00
      0.000000e+00      0.000000e+00      0.000000e+00
      0.000000e+00      0.000000e+00      0.000000e+00
      0.000000e+00      0.000000e+00      0.000000e+00
      0.000000e+00      0.000000e+00      0.000000e+00
      0.000000e+00      0.000000e+00      0.000000e+00
      0.000000e+00      0.000000e+00      0.000000e+00
      0.000000e+00      0.000000e+00      0.000000e+00
      0.000000e+00      0.000000e+00      0.000000e+00
      0.000000e+00      0.000000e+00      0.000000e+00
      0.000000e+00      0.000000e+00      0.000000e+00
      0.000000e+00      0.000000e+00      0.000000e+00
      0.000000e+00      0.000000e+00      0.000000e+00
      0.000000e+00      0.000000e+00      0.000000e+00
      0.000000e+00      0.000000e+00      0.000000e+00
      0.000000e+00      0.000000e+00      0.000000e+00
      0.000000e+00      0.000000e+00      0.000000e+00
      0.000000e+00      0.000000e+00      0.000000e+00
      0.000000e+00      0.000000e+00      0.000000e+00
      0.000000e+00      0.000000e+00      0.000000e+00
      0.000000e+00      0.000000e+00      0.000000e+00
      0.000000e+00      0.000000e+00      0.000000e+00
      0.000000e+00      0.000000e+00      0.000000e+00
      0.000000e+00      0.000000e+00      0.000000e+00
      0.000000e+00      0.000000e+00      0.000000e+00
      0.000000e+00      0.000000e+00      0.000000e+00
      0.000000e+00      0.000000e+00      0.000000e+00
      0.000000e+00      0.000000e+00      0.000000e+00
      0.000000e+00      0.000000e+00      0.000000e+00
      0.000000e+00      0.000000e+00      0.000000e+00
      0.000000e+00      0.000000e+00      0.000000e+00
      0.000000e+00      0.000000e+00      0.000000e+00
      0.000000e+00      0.000000e+00      0.000000e+00
      0.000000e+00      0.000000e+00      0.000000e+00
      0.000000e+00      0.000000e+00      0.000000e+00
      0.000000e+00      0.000000e+00      0.000000e+00
      0.000000e+00      0.000000e+00      0.000000e+00
      0.000000e+00      0.000000e+00      0.000000e+00
      0.000000e+00      0.000000e+00      0.000000e+00
      0.000000e+00      0.000000e+00      0.000000e+00
      0.000000e+00      0.000000e+00      0.000000e+00
      0.000000e+00      0.000000e+00      0.000000e+00
      0.000000e+00      0.000000e+00      0.000000e+00
      0.000000e+00      0.000000e+00      0.000000e+00
      0.000000e+00      0.000000e+00      0.000000e+00
      0.000000e+00      0.000000e+00      0.000000e+00
      0.000000e+00      0.000000e+00      0.000000e+00
      0.000000e+00      0.000000e+00      0.000000e+00
      0.000000e+00      0.000000e+00      0.000000e+00
      0.000000e+00      0.000000e+00      0.000000e+00
      0.000000e+00      0.000000e+00      0.000000e+00
      0.000000e+00      0.000000e+00      0.000000e+00
      0.000000e+00      0.000000e+00      0.000000e+00
      0.000000e+00      0.000000e+00      0.000000e+00
      0.000000e+00      0.000000e+00      0.000000e+00
      0.000000e+00      0.000000e+00      0.000000e+00
      0.000000e+00      0.000000e+00      0.000000e+00
      0.000000e+00      0.000000e+00      0.000000e+00
      0.000000e+00      0.000000e+00      0.000000e+00
      0.000000e+00      0.000000e+00      0.000000e+00
      0.000000e+00      0.000000e+00      0.000000e+00
      0.000000e+00      0.000000e+00      0.000000e+00
      0.000000e+00      0.000000e+00      0.000000e+00
      0.000000e+00      0.000000e+00      0.000000e+00
      0.000000e+00      0.000000e+00      0.000000e+00
      0.000000e+00      0.000000e+00      0.000000e+00
      0.000000e+00      0.000000e+00      0.000000e+00
      0.000000e+00      0.000000e+00      0.000000e+00
      0.000000e+00      0.000000e+00      0.000000e+00
      0.000000e+00      0.000000e+00      0.000000e+00
      0.000000e+00      0.000000e+00      0.000000e+00
      0.000000e+00      0.000000e+00      0.000000e+00
      0.000000e+00      0.000000e+00      0.000000e+00
      0.000000e+00      0.000000e+00      0.000000e+00
      0.000000e+00      0.000000e+00      0.000000e+00
      0.000000e+00      0.000000e+00      0.000000e+00
      0.000000e+00      0.000000e+00      0.000000e+00
      0.000000e+00      0.000000e+00      0.000000e+00
      0.000000e+00      0.000000e+00      0.000000e+00
      0.000000e+00      0.000000e+00      0.000000e+00
      0.000000e+00      0.000000e+00      0.000000e+00
      0.000000e+00      0.000000e+00      0.000000e+00
      0.000000e+00      0.000000e+00      0.000000e+00
      0.000000e+00      0.000000e+00      0.000000e+00
      0.000000e+00      0.000000e+00      0.000000e+00
      0.000000e+00      0.000000e+00      0.000000e+00
      0.000000e+00      0.000000e+00      0.000000e+00
      0.000000e+00      0.000000e+00      0.000000e+00
      0.000000e+00      0.000000e+00      0.000000e+00
      0.000000e+00      0.000000e+00      0.000000e+00
      0.000000e+00      0.000000e+00      0.000000e+00
      0.000000e+00      0.000000e+00      0.000000e+00
      0.000000e+00      0.000000e+00      0.000000e+00
      0.000000e+00      0.000000e+00      0.000000e+00
      0.000000e+00      0.000000e+00      0.000000e+00
      0.000000e+00      0.000000e+00      0.000000e+00
      0.000000e+00      0.000000e+00      0.000000e+00
      0.000000e+00      0.000000e+00      0.000000e+00
      0.000000e+00      0.000000e+00      0.000000e+00
      0.000000e+00      0.000000e+00      0.000000e+00
      0.000000e+00      0.000000e+00      0.000000e+00
      0.000000e+00      0.000000e+00      0.000000e+00
      0.000000e+00      0.000000e+00      0.000000e+00
      0.000000e+00      0.000000e+00      0.000000e+00
      0.000000e+00      0.000000e+00      0.000000e+00
      0.000000e+00      0.000000e+00      0.000000e+00
      0.000000e+00      0.000000e+00      0.000000e+00
      0.000000e+00      0.000000e+00      0.000000e+00
      0.000000e+00      0.000000e+00      0.000000e+00
      0.000000e+00      0.000000e+00      0.000000e+00
      0.000000e+00      0.000000e+00      0.000000e+00
      0.000000e+00      0.000000e+00      0.000000e+00
      0.000000e+00      0.000000e+00      0.000000e+00
      0.000000e+00      0.000000e+00      0.000000e+00
      0.000000e+00      0.000000e+00      0.000000e+00
      0.000000e+00      0.000000e+00      0.000000e+00
      0.000000e+00      0.000000e+00      0.000000e+00
      0.000000e+00      0.000000e+00      0.000000e+00
      0.000000e+00      0.000000e+00      0.000000e+00
      0.000000e+00      0.000000e+00      0.000000e+00
      0.000000e+00      0.000000e+00      0.000000e+00
      0.000000e+00      0.000000e+00      0.000000e+00
      0.000000e+00      0.000000e+00      0.000000e+00
      0.000000e+00      0.000000e+00      0.000000e+00
      0.000000e+00      0.000000e+00      0.000000e+00
      0.000000e+00      0.000000e+00      0.000000e+00
      0.000000e+00      0.000000e+00      0.000000e+00
Stress_Load_Case01            6         169 double
      0.000000e+00      0.000000e+00      0.000000e+00      0.000000e+00      0.000000e+00      0.000000e+00
      0.000000e+00      0.000000e+00      0.000000e+00      0.000000e+00      0.000000e+00      0.000000e+00
      0.000000e+00      0.000000e+00      0.000000e+00      0.000000e+00      0.000000e+00      0.000000e+00
      0.000000e+00      0.000000e+00      0.000000e+00      0.000000e+00      0.000000e+00      0.000000e+00
      0.000000e+00      0.000000e+00      0.000000e+00      0.000000e+00      0.000000e+00      0.000000e+00
      0.000000e+00      0.000000e+00      0.000000e+00      0.000000e+00      0.000000e+00      0.000000e+00
      0.000000e+00      0.000000e+00      0.000000e+00      0.000000e+00      0.000000e+00      0.000000e+00
      0.000000e+00      0.000000e+00      0.000000e+00      0.000000e+00      0.000000e+00      0.000000e+00
      0.000000e+00      0.000000e+00      0.000000e+00      0.000000e+00      0.000000e+00      0.000000e+00
      0.000000e+00      0.000000e+00      0.000000e+00      0.000000e+00      0.000000e+00      0.000000e+00
      0.000000e+00      0.000000e+00      0.000000e+00      0.000000e+00      0.000000e+00      0.000000e+00
      0.000000e+00      0.000000e+00      0.000000e+00      0.000000e+00      0.000000e+00      0.000000e+00
      0.000000e+00      0.000000e+00      0.000000e+00      0.000000e+00      0.000000e+00      0.000000e+00
      0.000000e+00      0.000000e+00      0.000000e+00      0.000000e+00      0.000000e+00      0.000000e+00
      0.000000e+00      0.000000e+00      0.000000e+00      0.000000e+00      0.000000e+00      0.000000e+00
      0.000000e+00      0.000000e+00      0.000000e+00      0.000000e+00      0.000000e+00      0.000000e+00
      0.000000e+00      0.000000e+00      0.000000e+00      0.000000e+00      0.000000e+00      0.000000e+00
      0.000000e+00      0.000000e+00      0.000000e+00      0.000000e+00      0.000000e+00      0.000000e+00
      0.000000e+00      0.000000e+00      0.000000e+00      0.000000e+00      0.000000e+00      0.000000e+00
      0.000000e+00      0.000000e+00      0.000000e+00      0.000000e+00      0.000000e+00      0.000000e+00
      0.000000e+00      0.000000e+00      0.000000e+00      0.000000e+00      0.000000e+00      0.000000e+00
      0.000000e+00      0.000000e+00      0.000000e+00      0.000000e+00      0.000000e+00      0.000000e+00
      0.000000e+00      0.000000e+00      0.000000e+00      0.000000e+00      0.000000e+00      0.000000e+00
      0.000000e+00      0.000000e+00      0.000000e+00      0.000000e+00      0.000000e+00      0.000000e+00
      0.000000e+00      0.000000e+00      0.000000e+00      0.000000e+00      0.000000e+00      0.000000e+00
      0.000000e+00      0.000000e+00      0.000000e+00      0.000000e+00      0.000000e+00      0.000000e+00
      0.000000e+00      0.000000e+00      0.000000e+00      0.000000e+00      0.000000e+00      0.000000e+00
      0.000000e+00      0.000000e+00      0.000000e+00      0.000000e+00      0.000000e+00      0.000000e+00
      0.000000e+00      0.000000e+00      0.000000e+00      0.000000e+00      0.000000e+00      0.000000e+00
      0.000000e+00      0.000000e+00      0.000000e+00      0.000000e+00      0.000000e+00      0.000000e+00
      0.000000e+00      0.000000e+00      0.000000e+00      0.000000e+00      0.000000e+00      0.000000e+00
      0.000000e+00      0.000000e+00      0.000000e+00      0.000000e+00      0.000000e+00      0.000000e+00
      0.000000e+00      0.000000e+00      0.000000e+00      0.000000e+00      0.000000e+00      0.000000e+00
      0.000000e+00      0.000000e+00      0.000000e+00      0.000000e+00      0.000000e+00      0.000000e+00
      0.000000e+00      0.000000e+00      0.000000e+00      0.000000e+00      0.000000e+00      0.000000e+00
      0.000000e+00      0.000000e+00      0.000000e+00      0.000000e+00      0.000000e+00      0.000000e+00
      0.000000e+00      0.000000e+00      0.000000e+00      0.000000e+00      0.000000e+00      0.000000e+00
      0.000000e+00      0.000000e+00      0.000000e+00      0.000000e+00      0.000000e+00      0.000000e+00
      0.000000e+00      0.000000e+00      0.000000e+00      0.000000e+00      0.000000e+00      0.000000e+00
      0.000000e+00      0.000000e+00      0.000000e+00      0.000000e+00      0.000000e+00      0.000000e+00
      0.000000e+00      0.000000e+00      0.000000e+00      0.000000e+00      0.000000e+00      0.000000e+00
      0.000000e+00      0.000000e+00      0.000000e+00      0.000000e+00      0.000000e+00      0.000000e+00
      0.000000e+00      0.000000e+00      0.000000e+00      0.000000e+00      0.000000e+00      0.000000e+00
      0.000000e+00      0.000000e+00      0.000000e+00      0.000000e+00      0.000000e+00      0.000000e+00
      0.000000e+00      0.000000e+00      0.000000e+00      0.000000e+00      0.000000e+00      0.000000e+00
      0.000000e+00      0.000000e+00      0.000000e+00      0.000000e+00      0.000000e+00      0.000000e+00
      0.000000e+00      0.000000e+00      0.000000e+00      0.000000e+00      0.000000e+00      0.000000e+00
      0.000000e+00      0.000000e+00      0.000000e+00      0.000000e+00      0.000000e+00      0.000000e+00
      0.000000e+00      0.000000e+00      0.000000e+00      0.000000e+00      0.000000e+00      0.000000e+00
      0.000000e+00      0.000000e+00      0.000000e+00      0.000000e+00      0.000000e+00      0.000000e+00
      0.000000e+00      0.000000e+00      0.000000e+00      0.000000e+00      0.000000e+00      0.000000e+00
      0.000000e+00      0.000000e+00      0.000000e+00      0.000000e+00      0.000000e+00      0.000000e+00
      0.000000e+00      0.000000e+00      0.000000e+00      0.000000e+00      0.000000e+00      0.000000e+00
      0.000000e+00      0.000000e+00      0.000000e+00      0.000000e+00      0.000000e+00      0.000000e+00
      0.000000e+00      0.000000e+00      0.000000e+00      0.000000e+00      0.000000e+00      0.000000e+00
      0.000000e+00      0.000000e+00      0.000000e+00      0.000000e+00      0.000000e+00      0.000000e+00
      0.000000e+00      0.000000e+00      0.000000e+00      0.000000e+00      0.000000e+00      0.000000e+00
      0.000000e+00      0.000000e+00      0.000000e+00      0.000000e+00      0.000000e+00      0.000000e+00
      0.000000e+00      0.000000e+00      0.000000e+00      0.000000e+00      0.000000e+00      0.000000e+00
      0.000000e+00      0.000000e+00      0.000000e+00      0.000000e+00      0.000000e+00      0.000000e+00
      0.000000e+00      0.000000e+00      0.000000e+00      0.000000e+00      0.000000e+00      0.000000e+00
      0.000000e+00      0.000000e+00      0.000000e+00      0.000000e+00      0.000000e+00      0.000000e+00
      0.000000e+00      0.000000e+00      0.000000e+00      0.000000e+00      0.000000e+00      0.000000e+00
      0.000000e+00      0.000000e+00      0.000000e+00      0.000000e+00      0.000000e+00      0.000000e+00
      0.000000e+00      0.000000e+00      0.000000e+00      0.000000e+00      0.000000e+00      0.000000e+00
      0.000000e+00      0.000000e+00      0.000000e+00      0.000000e+00      0.000000e+00      0.000000e+00
      0.000000e+00      0.000000e+00      0.000000e+00      0.000000e+00      0.000000e+00      0.000000e+00
      0.000000e+00      0.000000e+00      0.000000e+00      0.000000e+00      0.000000e+00      0.000000e+00
      0.000000e+00      0.000000e+00      0.000000e+00      0.000000e+00      0.000000e+00      0.000000e+00
      0.000000e+00      0.000000e+00      0.000000e+00      0.000000e+00      0.000000e+00      0.000000e+00
      0.000000e+00      0.000000e+00      0.000000e+00      0.000000e+00      0.000000e+00      0.000000e+00
      0.000000e+00      0.000000e+00      0.000000e+00      0.000000e+00      0.000000e+00      0.000000e+00
      0.000000e+00      0.000000e+00      0.000000e+00      0.000000e+00      0.000000e+00      0.000000e+00
      0.000000e+00      0.000000e+00      0.000000e+00      0.000000e+00      0.000000e+00      0.000000e+00
      0.000000e+00      0.000000e+00      0.000000e+00      0.000000e+00      0.000000e+00      0.000000e+00
      0.000000e+00      0.000000e+00      0.000000e+00      0.000000e+00      0.000000e+00      0.000000e+00
      0.000000e+00      0.000000e+00      0.000000e+00      0.000000e+00      0.000000e+00      0.000000e+00
      0.000000e+00      0.000000e+00      0.000000e+00      0.000000e+00      0.000000e+00      0.000000e+00
      0.000000e+00      0.000000e+00      0.000000e+00      0.000000e+00      0.000000e+00      0.000000e+00
      0.000000e+00      0.000000e+00      0.000000e+00      0.000000e+00      0.000000e+00      0.000000e+00
      0.000000e+00      0.000000e+00      0.000000e+00      0.000000e+00      0.000000e+00      0.000000e+00
      0.000000e+00      0.000000e+00      0.000000e+00      0.000000e+00      0.000000e+00      0.000000e+00
      0.000000e+00      0.000000e+00      0.000000e+00      0.000000e+00      0.000000e+00      0.000000e+00
      0.000000e+00      0.000000e+00      0.000000e+00      0.000000e+00      0.000000e+00      0.000000e+00
      0.000000e+00      0.000000e+00      0.000000e+00      0.000000e+00      0.000000e+00      0.000000e+00
      0.000000e+00      0.000000e+00      0.000000e+00      0.000000e+00      0.000000e+00      0.000000e+00
      0.000000e+00      0.000000e+00      0.000000e+00      0.000000e+00      0.000000e+00      0.000000e+00
      0.000000e+00      0.000000e+00      0.000000e+00      0.000000e+00      0.000000e+00      0.000000e+00
      0.000000e+00      0.000000e+00      0.000000e+00      0.000000e+00      0.000000e+00      0.000000e+00
      0.000000e+00      0.000000e+00      0.000000e+00      0.000000e+00      0.000000e+00      0.000000e+00
      0.000000e+00      0.000000e+00      0.000000e+00      0.000000e+00      0.000000e+00      0.000000e+00
      0.000000e+00      0.000000e+00      0.000000e+00      0.000000e+00      0.000000e+00      0.000000e+00
      0.000000e+00      0.000000e+00      0.000000e+00      0.000000e+00      0.000000e+00      0.000000e+00
      0.000000e+00      0.000000e+00      0.000000e+00      0.000000e+00      0.000000e+00      0.000000e+00
      0.000000e+00      0.000000e+00      0.000000e+00      0.000000e+00      0.000000e+00      0.000000e+00
      0.000000e+00      0.000000e+00      0.000000e+00      0.000000e+00      0.000000e+00      0.000000e+00
      0.000000e+00      0.000000e+00      0.000000e+00      0.000000e+00      0.000000e+00      0.000000e+00
      0.000000e+00      0.000000e+00      0.000000e+00      0.000000e+00      0.000000e+00      0.000000e+00
      0.000000e+00      0.000000e+00      0.000000e+00      0.000000e+00      0.000000e+00      0.000000e+00
      0.000000e+00      0.000000e+00      0.000000e+00      0.000000e+00      0.000000e+00      0.000000e+00
      0.000000e+00      0.000000e+00      0.000000e+00      0.000000e+00      0.000000e+00      0.000000e+00
      0.000000e+00      0.000000e+00      0.000000e+00      0.000000e+00      0.000000e+00      0.000000e+00
      0.000000e+00      0.000000e+00      0.000000e+00      0.000000e+00      0.000000e+00      0.000000e+00
      0.000000e+00      0.000000e+00      0.000000e+00      0.000000e+00      0.000000e+00      0.000000e+00
      0.000000e+00      0.000000e+00      0.000000e+00      0.000000e+00      0.000000e+00      0.000000e+00
      0.000000e+00      0.000000e+00      0.000000e+00      0.000000e+00      0.000000e+00      0.000000e+00
      0.000000e+00      0.000000e+00      0.000000e+00      0.000000e+00      0.000000e+00      0.000000e+00
      0.000000e+00      0.000000e+00      0.000000e+00      0.000000e+00      0.000000e+00      0.000000e+00
      0.000000e+00      0.000000e+00      0.000000e+00      0.000000e+00      0.000000e+00      0.000000e+00
      0.000000e+00      0.000000e+00      0.000000e+00      0.000000e+00      0.000000e+00      0.000000e+00
      0.000000e+00      0.000000e+00      0.000000e+00      0.000000e+00      0.000000e+00      0.000000e+00
      0.000000e+00      0.000000e+00      0.000000e+00      0.000000e+00      0.000000e+00      0.000000e+00
      0.000000e+00      0.000000e+00      0.000000e+00      0.000000e+00      0.000000e+00      0.000000e+00
      0.000000e+00      0.000000e+00      0.000000e+00      0.000000e+00      0.000000e+00      0.000000e+00
      0.000000e+00      0.000000e+00      0.000000e+00      0.000000e+00      0.000000e+00      0.000000e+00
      0.000000e+00      0.000000e+00      0.000000e+00      0.000000e+00      0.000000e+00      0.000000e+00
      0.000000e+00      0.000000e+00      0.000000e+00      0.000000e+00      0.000000e+00      0.000000e+00
      0.000000e+00      0.000000e+00      0.000000e+00      0.000000e+00      0.000000e+00      0.000000e+00
      0.000000e+00      0.000000e+00      0.000000e+00      0.000000e+00      0.000000e+00      0.000000e+00
      0.000000e+00      0.000000e+00      0.000000e+00      0.000000e+00      0.000000e+00      0.000000e+00
      0.000000e+00      0.000000e+00      0.000000e+00      0.000000e+00      0.000000e+00      0.000000e+00
      0.000000e+00      0.000000e+00      0.000000e+00      0.000000e+00      0.000000e+00      0.000000e+00
      0.000000e+00      0.000000e+00      0.000000e+00      0.000000e+00      0.000000e+00      0.000000e+00
      0.000000e+00      0.000000e+00      0.000000e+00      0.000000e+00      0.000000e+00      0.000000e+00
      0.000000e+00      0.000000e+00      0.000000e+00      0.000000e+00      0.000000e+00      0.000000e+00
      0.000000e+00      0.000000e+00      0.000000e+00      0.000000e+00      0.000000e+00      0.000000e+00
      0.000000e+00      0.000000e+00      0.000000e+00      0.000000e+00      0.000000e+00      0.000000e+00
      0.000000e+00      0.000000e+00      0.000000e+00      0.000000e+00      0.000000e+00      0.000000e+00
      0.000000e+00      0.000000e+00      0.000000e+00      0.000000e+00      0.000000e+00      0.000000e+00
      0.000000e+00      0.000000e+00      0.000000e+00      0.000000e+00      0.000000e+00      0.000000e+00
      0.000000e+00      0.000000e+00      0.000000e+00      0.000000e+00      0.000000e+00      0.000000e+00
      0.000000e+00      0.000000e+00      0.000000e+00      0.000000e+00      0.000000e+00      0.000000e+00
      0.000000e+00      0.000000e+00      0.000000e+00      0.000000e+00      0.000000e+00      0.000000e+00
      0.000000e+00      0.000000e+00      0.000000e+00      0.000000e+00      0.000000e+00      0.000000e+00
      0.000000e+00      0.000000e+00      0.000000e+00      0.000000e+00      0.000000e+00      0.000000e+00
      0.000000e+00      0.000000e+00      0.000000e+00      0.000000e+00      0.000000e+00      0.000000e+00
      0.000000e+00      0.000000e+00      0.000000e+00      0.000000e+00      0.000000e+00      0.000000e+00
      0.000000e+00      0.000000e+00      0.000000e+00      0.000000e+00      0.000000e+00      0.000000e+00
      0.000000e+00      0.000000e+00      0.000000e+00      0.000000e+00      0.000000e+00      0.000000e+00
      0.000000e+00      0.000000e+00      0.000000e+00      0.000000e+00      0.000000e+00      0.000000e+00
      0.000000e+00      0.000000e+00      0.000000e+00      0.000000e+00      0.000000e+00      0.000000e+00
      0.000000e+00      0.000000e+00      0.000000e+00      0.000000e+00      0.000000e+00      0.000000e+00
      0.000000e+00      0.000000e+00      0.000000e+00      0.000000e+00      0.000000e+00      0.000000e+00
      0.000000e+00      0.000000e+00      0.000000e+00      0.000000e+00      0.000000e+00      0.000000e+00
      0.000000e+00      0.000000e+00      0.000000e+00      0.000000e+00      0.000000e+00      0.000000e+00
      0.000000e+00      0.000000e+00      0.000000e+00      0.000000e+00      0.000000e+00      0.000000e+00
      0.000000e+00      0.000000e+00      0.000000e+00      0.000000e+00      0.000000e+00      0.000000e+00
      0.000000e+00      0.000000e+00      0.000000e+00      0.000000e+00      0.000000e+00      0.000000e+00
      0.000000e+00      0.000000e+00      0.000000e+00      0.000000e+00      0.000000e+00      0.000000e+00
      0.000000e+00      0.000000e+00      0.000000e+00      0.000000e+00      0.000000e+00      0.000000e+00
      0.000000e+00      0.000000e+00      0.000000e+00      0.000000e+00      0.000000e+00      0.000000e+00
      0.000000e+00      0.000000e+00      0.000000e+00      0.000000e+00      0.000000e+00      0.000000e+00
      0.000000e+00      0.000000e+00      0.000000e+00      0.000000e+00      0.000000e+00      0.000000e+00
      0.000000e+00      0.000000e+00      0.000000e+00      0.000000e+00      0.000000e+00      0.000000e+00
      0.000000e+00      0.000000e+00      0.000000e+00      0.000000e+00      0.000000e+00      0.000000e+00
      0.000000e+00      0.000000e+00      0.000000e+00      0.000000e+00      0.000000e+00      0.000000e+00
      0.000000e+00      0.000000e+00      0.000000e+00      0.000000e+00      0.000000e+00      0.000000e+00
      0.000000e+00      0.000000e+00      0.000000e+00      0.000000e+00      0.000000e+00      0.000000e+00
      0.000000e+00      0.000000e+00      0.000000e+00      0.000000e+00      0.000000e+00      0.000000e+00
      0.000000e+00      0.000000e+00      0.000000e+00      0.000000e+00      0.000000e+00      0.000000e+00
      0.000000e+00      0.000000e+00      0.000000e+00      0.000000e+00      0.000000e+00      0.000000e+00
      0.000000e+00      0.000000e+00      0.000000e+00      0.000000e+00      0.000000e+00      0.000000e+00
      0.000000e+00      0.000000e+00      0.000000e+00      0.000000e+00      0.000000e+00      0.000000e+00
      0.000000e+00      0.000000e+00      0.000000e+00      0.000000e+00      0.000000e+00      0.000000e+00
      0.000000e+00      0.000000e+00      0.000000e+00      0.000000e+00      0.000000e+00      0.000000e+00
      0.000000e+00      0.000000e+00      0.000000e+00      0.000000e+00      0.000000e+00      0.000000e+00
      0.000000e+00      0.000000e+00      0.000000e+00      0.000000e+00      0.000000e+00      0.000000e+00
      0.000000e+00      0.000000e+00      0.000000e+00      0.000000e+00      0.000000e+00      0.000000e+00
      0.000000e+00      0.000000e+00      0.000000e+00      0.000000e+00      0.000000e+00      0.000000e+00
