# vtk DataFile Version 3.0
 BEAM 

ASCII
DATASET UNSTRUCTURED_GRID
POINTS       169 double
      3.000000e+01     -1.000000e+01      1.414214e+01
      2.000000e+01     -2.000000e+01      0.000000e+00
      1.000000e+01     -3.000000e+01      1.414214e+01
      2.000000e+01     -4.000000e+01      0.000000e+00
      0.000000e+00     -4.000000e+01      0.000000e+00
     -2.000000e+01     -4.000000e+01      0.000000e+00
     -2.000000e+01     -2.000000e+01      0.000000e+00
     -1.000000e+01     -1.000000e+01      1.414214e+01
      0.000000e+00      0.000000e+00      0.000000e+00
     -1.000000e+01      1.000000e+01      1.414214e+01
      0.000000e+00      2.000000e+01      0.000000e+00
      1.000000e+01      1.000000e+01      1.414214e+01
      1.000000e+01      3.000000e+01      1.414214e+01
      2.000000e+01      4.000000e+01      0.000000e+00
      4.000000e+01      4.000000e+01      0.000000e+00
      3.000000e+01      3.000000e+01      1.414214e+01
      4.000000e+01      2.000000e+01      0.000000e+00
      2.000000e+01      2.000000e+01      0.000000e+00
      2.000000e+01      0.000000e+00      0.000000e+00
      4.000000e+01     -2.000000e+01      0.000000e+00
      4.000000e+01      0.000000e+00      0.000000e+00
      3.000000e+01      1.000000e+01      1.414214e+01
      0.000000e+00     -2.000000e+01      0.000000e+00
     -1.000000e+01     -3.000000e+01      1.414214e+01
      4.000000e+01     -4.000000e+01      0.000000e+00
      3.000000e+01     -3.000000e+01      1.414214e+01
      1.000000e+01     -1.000000e+01      1.414214e+01
     -3.000000e+01     -3.000000e+01      1.414214e+01
     -4.000000e+01     -2.000000e+01      0.000000e+00
     -3.000000e+01     -1.000000e+01      1.414214e+01
     -4.000000e+01      0.000000e+00      0.000000e+00
     -3.000000e+01      1.000000e+01      1.414214e+01
     -4.000000e+01      2.000000e+01      0.000000e+00
     -3.000000e+01      3.000000e+01      1.414214e+01
     -2.000000e+01      4.000000e+01      0.000000e+00
      0.000000e+00      4.000000e+01      0.000000e+00
     -2.000000e+01      0.000000e+00      0.000000e+00
     -2.000000e+01      2.000000e+01      0.000000e+00
     -1.000000e+01      3.000000e+01      1.414214e+01
     -4.000000e+01     -4.000000e+01      0.000000e+00
     -4.000000e+01      4.000000e+01      0.000000e+00
      2.500000e+01     -1.500000e+01      7.071068e+00
      1.500000e+01     -2.500000e+01      7.071068e+00
      1.500000e+01     -3.500000e+01      7.071068e+00
      1.000000e+01     -4.000000e+01      0.000000e+00
     -1.000000e+01     -4.000000e+01      0.000000e+00
     -2.000000e+01     -3.000000e+01      0.000000e+00
     -1.500000e+01     -1.500000e+01      7.071068e+00
     -5.000000e+00     -5.000000e+00      7.071068e+00
     -5.000000e+00      5.000000e+00      7.071068e+00
     -5.000000e+00      1.500000e+01      7.071068e+00
      5.000000e+00      1.500000e+01      7.071068e+00
      1.000000e+01      2.000000e+01      1.414214e+01
      1.500000e+01      3.500000e+01      7.071068e+00
      3.000000e+01      4.000000e+01      0.000000e+00
      3.500000e+01      3.500000e+01      7.071068e+00
      3.500000e+01      2.500000e+01      7.071068e+00
      3.000000e+01      2.000000e+01      0.000000e+00
      2.000000e+01      1.000000e+01      0.000000e+00
      2.000000e+01     -1.000000e+01      0.000000e+00
      3.000000e+01     -2.000000e+01      0.000000e+00
      4.000000e+01     -1.000000e+01      0.000000e+00
      4.000000e+01      1.000000e+01      0.000000e+00
      3.500000e+01      1.500000e+01      7.071068e+00
      2.500000e+01      1.500000e+01      7.071068e+00
      2.500000e+01      2.500000e+01      7.071068e+00
      2.500000e+01      3.500000e+01      7.071068e+00
      3.500000e+01     -1.500000e+01      7.071068e+00
      3.500000e+01     -5.000000e+00      7.071068e+00
      1.000000e+01     -2.000000e+01      0.000000e+00
      0.000000e+00     -3.000000e+01      0.000000e+00
      5.000000e+00     -3.500000e+01      7.071068e+00
      5.000000e+00     -2.500000e+01      7.071068e+00
     -5.000000e+00     -2.500000e+01      7.071068e+00
     -5.000000e+00     -3.500000e+01      7.071068e+00
      3.000000e+01     -4.000000e+01      0.000000e+00
      2.000000e+01     -3.000000e+01      0.000000e+00
      2.500000e+01     -2.500000e+01      7.071068e+00
      3.000000e+01     -2.000000e+01      1.414214e+01
      2.000000e+01     -1.000000e+01      1.414214e+01
      1.000000e+01      0.000000e+00      1.414214e+01
      1.500000e+01      5.000000e+00      7.071068e+00
      2.500000e+01      5.000000e+00      7.071068e+00
      3.500000e+01      5.000000e+00      7.071068e+00
     -1.500000e+01     -3.500000e+01      7.071068e+00
     -1.500000e+01     -2.500000e+01      7.071068e+00
     -2.500000e+01     -2.500000e+01      7.071068e+00
     -3.500000e+01     -2.500000e+01      7.071068e+00
     -3.500000e+01     -1.500000e+01      7.071068e+00
     -3.500000e+01     -5.000000e+00      7.071068e+00
     -3.500000e+01      5.000000e+00      7.071068e+00
     -3.500000e+01      1.500000e+01      7.071068e+00
     -3.500000e+01      2.500000e+01      7.071068e+00
     -2.500000e+01      3.500000e+01      7.071068e+00
     -1.000000e+01      4.000000e+01      0.000000e+00
      1.000000e+01      4.000000e+01      0.000000e+00
      2.000000e+01      3.000000e+01      0.000000e+00
     -5.000000e+00     -1.500000e+01      7.071068e+00
     -1.500000e+01     -5.000000e+00      7.071068e+00
     -1.500000e+01      5.000000e+00      7.071068e+00
      5.000000e+00      5.000000e+00      7.071068e+00
      1.500000e+01      1.500000e+01      7.071068e+00
     -1.500000e+01      1.500000e+01      7.071068e+00
     -1.000000e+01      2.000000e+01      1.414214e+01
     -5.000000e+00      3.500000e+01      7.071068e+00
      5.000000e+00      2.500000e+01      7.071068e+00
      5.000000e+00      3.500000e+01      7.071068e+00
      0.000000e+00      1.000000e+01      1.414214e+01
     -1.000000e+01      0.000000e+00      1.414214e+01
     -2.000000e+01     -1.000000e+01      1.414214e+01
     -3.000000e+01     -2.000000e+01      1.414214e+01
     -2.000000e+01     -3.000000e+01      1.414214e+01
     -1.000000e+01     -2.000000e+01      1.414214e+01
      1.500000e+01      2.500000e+01      7.071068e+00
      4.000000e+01      3.000000e+01      0.000000e+00
      1.500000e+01     -5.000000e+00      7.071068e+00
      5.000000e+00     -1.500000e+01      7.071068e+00
      4.000000e+01     -3.000000e+01      0.000000e+00
      3.000000e+01      0.000000e+00      0.000000e+00
      1.000000e+01      0.000000e+00      0.000000e+00
      0.000000e+00     -1.000000e+01      0.000000e+00
      2.000000e+01      1.000000e+01      1.414214e+01
      3.000000e+01      0.000000e+00      1.414214e+01
      2.000000e+01      3.000000e+01      1.414214e+01
      3.500000e+01     -2.500000e+01      7.071068e+00
      2.500000e+01     -5.000000e+00      7.071068e+00
      0.000000e+00     -3.000000e+01      1.414214e+01
     -1.000000e+01     -2.000000e+01      0.000000e+00
      3.500000e+01     -3.500000e+01      7.071068e+00
      2.500000e+01     -3.500000e+01      7.071068e+00
      1.500000e+01     -1.500000e+01      7.071068e+00
      2.000000e+01     -3.000000e+01      1.414214e+01
      1.000000e+01     -2.000000e+01      1.414214e+01
      0.000000e+00     -1.000000e+01      1.414214e+01
     -2.500000e+01     -3.500000e+01      7.071068e+00
     -3.500000e+01     -3.500000e+01      7.071068e+00
     -3.000000e+01     -4.000000e+01      0.000000e+00
     -2.500000e+01     -1.500000e+01      7.071068e+00
     -2.500000e+01     -5.000000e+00      7.071068e+00
     -2.500000e+01      5.000000e+00      7.071068e+00
     -2.500000e+01      1.500000e+01      7.071068e+00
     -1.500000e+01      2.500000e+01      7.071068e+00
     -1.500000e+01      3.500000e+01      7.071068e+00
     -4.000000e+01     -1.000000e+01      0.000000e+00
     -4.000000e+01     -3.000000e+01      0.000000e+00
     -3.000000e+01      0.000000e+00      1.414214e+01
     -3.000000e+01      2.000000e+01      1.414214e+01
     -2.500000e+01      2.500000e+01      7.071068e+00
     -3.000000e+01      2.000000e+01      0.000000e+00
     -4.000000e+01      1.000000e+01      0.000000e+00
     -3.500000e+01      3.500000e+01      7.071068e+00
     -3.000000e+01      4.000000e+01      0.000000e+00
     -2.000000e+01      3.000000e+01      0.000000e+00
     -1.000000e+01      2.000000e+01      0.000000e+00
      0.000000e+00      3.000000e+01      0.000000e+00
     -1.000000e+01      0.000000e+00      0.000000e+00
     -2.000000e+01      1.000000e+01      0.000000e+00
     -2.000000e+01      1.000000e+01      1.414214e+01
     -5.000000e+00      2.500000e+01      7.071068e+00
      0.000000e+00      3.000000e+01      1.414214e+01
      1.000000e+01      2.000000e+01      0.000000e+00
      5.000000e+00     -5.000000e+00      7.071068e+00
      3.000000e+01      2.000000e+01      1.414214e+01
     -2.000000e+01     -1.000000e+01      0.000000e+00
     -3.000000e+01      0.000000e+00      0.000000e+00
     -3.000000e+01     -2.000000e+01      0.000000e+00
     -4.000000e+01      3.000000e+01      0.000000e+00
     -2.000000e+01      3.000000e+01      1.414214e+01
      0.000000e+00      1.000000e+01      0.000000e+00
CELLS     256  768
2       0   41
2      41    1
2       2   42
2      42    1
2       2   43
2      43    3
2       3   44
2      44    4
2       4   45
2      45    5
2       6   46
2      46    5
2       7   47
2      47    6
2       7   48
2      48    8
2       9   49
2      49    8
2       9   50
2      50   10
2      11   51
2      51   10
2      12   52
2      52   11
2      12   53
2      53   13
2      13   54
2      54   14
2      15   55
2      55   14
2      15   56
2      56   16
2      17   57
2      57   16
2      17   58
2      58   18
2      18   59
2      59    1
2       1   60
2      60   19
2      20   61
2      61   19
2      16   62
2      62   20
2      21   63
2      63   16
2      21   64
2      64   17
2      15   65
2      65   17
2      15   66
2      66   13
2       0   67
2      67   19
2       0   68
2      68   20
2      22   69
2      69    1
2      22   70
2      70    4
2       2   71
2      71    4
2       2   72
2      72   22
2      23   73
2      73   22
2      23   74
2      74    4
2      24   75
2      75    3
2       1   76
2      76    3
2      25   77
2      77    1
2      25   78
2      78    0
2      26   79
2      79    0
2      11   80
2      80   26
2      11   81
2      81   18
2      21   82
2      82   18
2      21   83
2      83   20
2      23   84
2      84    5
2      23   85
2      85    6
2      27   86
2      86    6
2      27   87
2      87   28
2      29   88
2      88   28
2      29   89
2      89   30
2      31   90
2      90   30
2      31   91
2      91   32
2      33   92
2      92   32
2      34   93
2      93   33
2      34   94
2      94   35
2      35   95
2      95   13
2      13   96
2      96   17
2       7   97
2      97   22
2       7   98
2      98   36
2       9   99
2      99   36
2      11  100
2     100    8
2      11  101
2     101   17
2       9  102
2     102   37
2      38  103
2     103    9
2      38  104
2     104   35
2      12  105
2     105   10
2      12  106
2     106   35
2       9  107
2     107   11
2       9  108
2     108    7
2      29  109
2     109    7
2      29  110
2     110   27
2      27  111
2     111   23
2       7  112
2     112   23
2      12  113
2     113   17
2      14  114
2     114   16
2      26  115
2     115   18
2      26  116
2     116   22
2      19  117
2     117   24
2      18  118
2     118   20
2       8  119
2     119   18
2       8  120
2     120   22
2      11  121
2     121   21
2       0  122
2     122   21
2      15  123
2     123   12
2      25  124
2     124   19
2       0  125
2     125   18
2      23  126
2     126    2
2       6  127
2     127   22
2      25  128
2     128   24
2      25  129
2     129    3
2       1  130
2     130   26
2       2  131
2     131   25
2      26  132
2     132    2
2       7  133
2     133   26
2      27  134
2     134    5
2      27  135
2     135   39
2       5  136
2     136   39
2      29  137
2     137    6
2      29  138
2     138   36
2      31  139
2     139   36
2      31  140
2     140   37
2      38  141
2     141   37
2      38  142
2     142   34
2      30  143
2     143   28
2      39  144
2     144   28
2      31  145
2     145   29
2      33  146
2     146   31
2      33  147
2     147   37
2      32  148
2     148   37
2      32  149
2     149   30
2      40  150
2     150   33
2      40  151
2     151   34
2      34  152
2     152   37
2      37  153
2     153   10
2      35  154
2     154   10
2      36  155
2     155    8
2      37  156
2     156   36
2      31  157
2     157    9
2      38  158
2     158   10
2      12  159
2     159   38
2      10  160
2     160   17
2      26  161
2     161    8
2      21  162
2     162   15
2      36  163
2     163    6
2      30  164
2     164   36
2      28  165
2     165    6
2      32  166
2     166   40
2      38  167
2     167   33
2      10  168
2     168    8
 CELL_TYPES     256
 3
 3
 3
 3
 3
 3
 3
 3
 3
 3
 3
 3
 3
 3
 3
 3
 3
 3
 3
 3
 3
 3
 3
 3
 3
 3
 3
 3
 3
 3
 3
 3
 3
 3
 3
 3
 3
 3
 3
 3
 3
 3
 3
 3
 3
 3
 3
 3
 3
 3
 3
 3
 3
 3
 3
 3
 3
 3
 3
 3
 3
 3
 3
 3
 3
 3
 3
 3
 3
 3
 3
 3
 3
 3
 3
 3
 3
 3
 3
 3
 3
 3
 3
 3
 3
 3
 3
 3
 3
 3
 3
 3
 3
 3
 3
 3
 3
 3
 3
 3
 3
 3
 3
 3
 3
 3
 3
 3
 3
 3
 3
 3
 3
 3
 3
 3
 3
 3
 3
 3
 3
 3
 3
 3
 3
 3
 3
 3
 3
 3
 3
 3
 3
 3
 3
 3
 3
 3
 3
 3
 3
 3
 3
 3
 3
 3
 3
 3
 3
 3
 3
 3
 3
 3
 3
 3
 3
 3
 3
 3
 3
 3
 3
 3
 3
 3
 3
 3
 3
 3
 3
 3
 3
 3
 3
 3
 3
 3
 3
 3
 3
 3
 3
 3
 3
 3
 3
 3
 3
 3
 3
 3
 3
 3
 3
 3
 3
 3
 3
 3
 3
 3
 3
 3
 3
 3
 3
 3
 3
 3
 3
 3
 3
 3
 3
 3
 3
 3
 3
 3
 3
 3
 3
 3
 3
 3
 3
 3
 3
 3
 3
 3
 3
 3
 3
 3
 3
 3
 3
 3
 3
 3
 3
 3
 3
 3
 3
 3
 3
 3
 3
 3
 3
 3
 3
 3
CELL_DATA     256
POINT_DATA     169
FIELD Result          3
Displacement_Load_Case01            3           169 double
      2.006335e-09     -7.837798e-10      3.833421e-07
     -5.487136e-10      5.487136e-10      4.697861e-07
      7.837798e-10     -2.006335e-09      3.833421e-07
      3.923031e-11     -6.639689e-09      4.400040e-07
     -3.099791e-22     -4.153017e-09      5.155090e-07
     -3.923031e-11     -6.639689e-09      4.400040e-07
      5.487136e-10      5.487136e-10      4.697861e-07
     -1.215892e-09     -1.215892e-09      5.155752e-07
     -2.973640e-22      1.932501e-23      5.814488e-07
     -1.215892e-09      1.215892e-09      5.155752e-07
     -2.862212e-22      5.114023e-11      5.365885e-07
      1.215892e-09      1.215892e-09      5.155752e-07
      7.837798e-10      2.006335e-09      3.833421e-07
      3.923031e-11      6.639689e-09      4.400040e-07
      5.908471e-09      5.908471e-09      3.961021e-07
      0.000000e+00      0.000000e+00      0.000000e+00
      6.639689e-09      3.923031e-11      4.400040e-07
     -5.487136e-10     -5.487136e-10      4.697861e-07
      5.114023e-11     -8.943417e-23      5.365885e-07
      6.639689e-09     -3.923031e-11      4.400040e-07
      4.153017e-09     -1.586596e-22      5.155090e-07
      2.006335e-09      7.837798e-10      3.833421e-07
     -3.010291e-22     -5.114023e-11      5.365885e-07
     -7.837798e-10     -2.006335e-09      3.833421e-07
      5.908471e-09     -5.908471e-09      3.961021e-07
      0.000000e+00      0.000000e+00      0.000000e+00
      1.215892e-09     -1.215892e-09      5.155752e-07
      0.000000e+00      0.000000e+00      0.000000e+00
     -6.639689e-09     -3.923031e-11      4.400040e-07
     -2.006335e-09     -7.837798e-10      3.833421e-07
     -4.153017e-09      2.463324e-22      5.155090e-07
     -2.006335e-09      7.837798e-10      3.833421e-07
     -6.639689e-09      3.923031e-11      4.400040e-07
      0.000000e+00      0.000000e+00      0.000000e+00
     -3.923031e-11      6.639689e-09      4.400040e-07
     -2.161886e-22      4.153017e-09      5.155090e-07
     -5.114023e-11      2.841839e-22      5.365885e-07
      5.487136e-10     -5.487136e-10      4.697861e-07
     -7.837798e-10      2.006335e-09      3.833421e-07
     -5.908471e-09     -5.908471e-09      3.961021e-07
     -5.908471e-09      5.908471e-09      3.961021e-07
     -3.128770e-09      2.463281e-08      4.117907e-07
     -2.463281e-08      3.128770e-09      4.117907e-07
     -2.301679e-08      5.030590e-09      3.884928e-07
      1.961515e-11     -5.353995e-09      4.881836e-07
     -1.961515e-11     -5.353995e-09      4.881836e-07
      2.123843e-10     -3.045488e-09      4.471524e-07
      4.272253e-09      4.272253e-09      4.861670e-07
      1.018643e-08      1.018643e-08      5.637775e-07
      1.018643e-08     -1.018643e-08      5.637775e-07
      1.018643e-08     -5.653685e-09      5.292689e-07
     -1.018643e-08     -5.653685e-09      5.292689e-07
      8.835293e-10      1.611113e-09      4.483182e-07
     -2.301679e-08     -5.030590e-09      3.884928e-07
      2.973851e-09      6.316437e-09      4.100877e-07
      4.695001e-09      4.695001e-09      2.005129e-07
      4.054721e-09      7.413892e-09      2.152931e-07
      3.045488e-09     -2.123843e-10      4.471524e-07
     -2.487867e-10     -2.743568e-10      5.119392e-07
     -2.487867e-10      2.743568e-10      5.119392e-07
      3.045488e-09      2.123843e-10      4.471524e-07
      5.353995e-09     -1.961515e-11      4.881836e-07
      5.353995e-09      1.961515e-11      4.881836e-07
     -5.030590e-09     -2.301679e-08      3.884928e-07
     -3.128770e-09     -2.463281e-08      4.117907e-07
      5.914181e-09      5.914181e-09      2.261411e-07
      7.413892e-09      4.054721e-09      2.152931e-07
     -5.030590e-09      2.301679e-08      3.884928e-07
     -6.331498e-09      3.043068e-08      4.645657e-07
     -2.743568e-10      2.487867e-10      5.119392e-07
     -3.006285e-22     -2.102079e-09      5.204081e-07
     -3.043068e-08      6.331498e-09      4.645657e-07
     -3.054699e-08      4.393896e-09      4.856768e-07
      3.054699e-08      4.393896e-09      4.856768e-07
      3.043068e-08      6.331498e-09      4.645657e-07
      2.973851e-09     -6.316437e-09      4.100877e-07
     -2.123843e-10     -3.045488e-09      4.471524e-07
      5.914181e-09     -5.914181e-09      2.261411e-07
      8.868608e-10     -3.918899e-10      1.479991e-07
      1.611113e-09     -8.835293e-10      4.483182e-07
      1.215892e-09     -2.392620e-22      5.461063e-07
     -5.653685e-09     -1.018643e-08      5.292689e-07
     -4.393896e-09     -3.054699e-08      4.856768e-07
     -6.331498e-09     -3.043068e-08      4.645657e-07
      2.301679e-08      5.030590e-09      3.884928e-07
      2.463281e-08      3.128770e-09      4.117907e-07
     -5.914181e-09     -5.914181e-09      2.261411e-07
     -4.054721e-09     -7.413892e-09      2.152931e-07
      5.030590e-09      2.301679e-08      3.884928e-07
      6.331498e-09      3.043068e-08      4.645657e-07
      6.331498e-09     -3.043068e-08      4.645657e-07
      5.030590e-09     -2.301679e-08      3.884928e-07
     -4.054721e-09      7.413892e-09      2.152931e-07
     -7.413892e-09      4.054721e-09      2.152931e-07
     -1.961515e-11      5.353995e-09      4.881836e-07
      1.961515e-11      5.353995e-09      4.881836e-07
     -2.123843e-10      3.045488e-09      4.471524e-07
      1.018643e-08      5.653685e-09      5.292689e-07
      5.653685e-09      1.018643e-08      5.292689e-07
      5.653685e-09     -1.018643e-08      5.292689e-07
     -1.018643e-08     -1.018643e-08      5.637775e-07
     -4.272253e-09     -4.272253e-09      4.861670e-07
      4.272253e-09     -4.272253e-09      4.861670e-07
     -8.835293e-10      1.611113e-09      4.483182e-07
      3.043068e-08     -6.331498e-09      4.645657e-07
     -3.054699e-08     -4.393896e-09      4.856768e-07
     -3.043068e-08     -6.331498e-09      4.645657e-07
      8.830153e-23      1.215892e-09      5.461063e-07
     -1.215892e-09     -1.429471e-22      5.461063e-07
     -1.611113e-09     -8.835293e-10      4.483182e-07
     -8.868608e-10     -3.918899e-10      1.479991e-07
     -3.918899e-10     -8.868608e-10      1.479991e-07
     -8.835293e-10     -1.611113e-09      4.483182e-07
     -2.463281e-08     -3.128770e-09      4.117907e-07
      6.316437e-09      2.973851e-09      4.100877e-07
     -5.653685e-09      1.018643e-08      5.292689e-07
     -1.018643e-08      5.653685e-09      5.292689e-07
      6.316437e-09     -2.973851e-09      4.100877e-07
      2.102079e-09     -9.926167e-23      5.204081e-07
      2.557011e-11     -7.858216e-23      5.653928e-07
     -3.206401e-22     -2.557011e-11      5.653928e-07
      1.611113e-09      8.835293e-10      4.483182e-07
      2.238948e-09     -8.271806e-24      4.706860e-07
      3.918899e-10      8.868608e-10      1.479991e-07
      4.054721e-09     -7.413892e-09      2.152931e-07
     -4.393896e-09      3.054699e-08      4.856768e-07
     -2.597218e-23     -2.238948e-09      4.706860e-07
      2.743568e-10      2.487867e-10      5.119392e-07
      4.695001e-09     -4.695001e-09      2.005129e-07
      7.413892e-09     -4.054721e-09      2.152931e-07
     -4.272253e-09      4.272253e-09      4.861670e-07
      3.918899e-10     -8.868608e-10      1.479991e-07
      8.835293e-10     -1.611113e-09      4.483182e-07
     -1.169346e-22     -1.215892e-09      5.461063e-07
     -7.413892e-09     -4.054721e-09      2.152931e-07
     -4.695001e-09     -4.695001e-09      2.005129e-07
     -2.973851e-09     -6.316437e-09      4.100877e-07
      3.128770e-09      2.463281e-08      4.117907e-07
      4.393896e-09      3.054699e-08      4.856768e-07
      4.393896e-09     -3.054699e-08      4.856768e-07
      3.128770e-09     -2.463281e-08      4.117907e-07
      2.463281e-08     -3.128770e-09      4.117907e-07
      2.301679e-08     -5.030590e-09      3.884928e-07
     -5.353995e-09     -1.961515e-11      4.881836e-07
     -6.316437e-09     -2.973851e-09      4.100877e-07
     -2.238948e-09      1.390697e-23      4.706860e-07
     -8.868608e-10      3.918899e-10      1.479991e-07
     -5.914181e-09      5.914181e-09      2.261411e-07
     -3.045488e-09     -2.123843e-10      4.471524e-07
     -5.353995e-09      1.961515e-11      4.881836e-07
     -4.695001e-09      4.695001e-09      2.005129e-07
     -2.973851e-09      6.316437e-09      4.100877e-07
      2.123843e-10      3.045488e-09      4.471524e-07
      2.743568e-10     -2.487867e-10      5.119392e-07
     -2.652148e-22      2.102079e-09      5.204081e-07
     -2.557011e-11      1.664701e-22      5.653928e-07
      2.487867e-10     -2.743568e-10      5.119392e-07
     -1.611113e-09      8.835293e-10      4.483182e-07
      3.054699e-08     -4.393896e-09      4.856768e-07
      6.519147e-24      2.238948e-09      4.706860e-07
     -2.743568e-10     -2.487867e-10      5.119392e-07
     -1.018643e-08      1.018643e-08      5.637775e-07
      8.868608e-10      3.918899e-10      1.479991e-07
      2.487867e-10      2.743568e-10      5.119392e-07
     -2.102079e-09      2.690405e-22      5.204081e-07
     -3.045488e-09      2.123843e-10      4.471524e-07
     -6.316437e-09      2.973851e-09      4.100877e-07
     -3.918899e-10      8.868608e-10      1.479991e-07
     -2.716654e-22      2.557011e-11      5.653928e-07
Rotation_Load_Case01            3         169 double
      1.746878e-08      5.650047e-09     -4.652264e-11
      3.500766e-09      3.500766e-09     -2.619624e-24
      5.650047e-09      1.746878e-08      4.652264e-11
      4.037275e-10      4.170855e-09     -1.694295e-11
      2.933858e-10     -6.923312e-24     -6.532728e-24
      4.037275e-10     -4.170855e-09      1.694295e-11
      3.500766e-09     -3.500766e-09     -5.610934e-24
      6.106224e-09     -6.106224e-09     -5.010542e-24
     -2.547593e-23     -2.595158e-23     -1.106051e-23
     -6.106224e-09     -6.106224e-09     -5.115757e-24
     -2.549646e-09     -3.305734e-23     -4.073299e-24
     -6.106224e-09      6.106224e-09      1.238146e-24
     -5.650047e-09      1.746878e-08     -4.652264e-11
     -4.037275e-10      4.170855e-09      1.694295e-11
     -9.847247e-10      9.847247e-10     -3.980807e-24
      0.000000e+00      0.000000e+00      0.000000e+00
     -4.170855e-09      4.037275e-10     -1.694295e-11
     -3.500766e-09      3.500766e-09     -3.743315e-24
      4.073198e-24      2.549646e-09      3.803092e-24
      4.170855e-09      4.037275e-10      1.694295e-11
      6.187939e-24      2.933858e-10     -4.859686e-24
     -1.746878e-08      5.650047e-09      4.652264e-11
      2.549646e-09     -1.721183e-23     -3.421814e-24
      5.650047e-09     -1.746878e-08     -4.652264e-11
      9.847247e-10      9.847247e-10     -2.946831e-24
      0.000000e+00      0.000000e+00      0.000000e+00
      6.106224e-09      6.106224e-09     -2.088531e-24
      0.000000e+00      0.000000e+00      0.000000e+00
      4.170855e-09     -4.037275e-10     -1.694295e-11
      1.746878e-08     -5.650047e-09      4.652264e-11
      3.311478e-23     -2.933858e-10      1.813497e-25
     -1.746878e-08     -5.650047e-09     -4.652264e-11
     -4.170855e-09     -4.037275e-10      1.694295e-11
      0.000000e+00      0.000000e+00      0.000000e+00
     -4.037275e-10     -4.170855e-09     -1.694295e-11
     -2.933858e-10      2.031966e-23     -9.291545e-24
      7.601937e-24     -2.549646e-09     -2.427016e-24
     -3.500766e-09     -3.500766e-09     -5.036795e-24
     -5.650047e-09     -1.746878e-08      4.652264e-11
      9.847247e-10     -9.847247e-10      2.159636e-24
     -9.847247e-10     -9.847247e-10     -4.603212e-24
     -2.778137e-09      6.724677e-09      7.835267e-09
      6.724677e-09     -2.778137e-09     -7.835267e-09
     -6.814175e-09     -4.565050e-09      3.934850e-09
      3.485567e-10      4.620159e-09     -1.822647e-10
      3.485567e-10     -4.620159e-09      1.822647e-10
      1.257534e-09     -3.835811e-09     -4.833153e-11
     -5.910735e-10      5.910735e-10     -2.458116e-23
      1.008185e-09     -1.008185e-09      3.544113e-23
     -1.008185e-09     -1.008185e-09     -2.513611e-23
      1.223045e-10     -2.093819e-09      3.825117e-09
      1.223045e-10      2.093819e-09     -3.825117e-09
     -6.978412e-09      1.178750e-08      4.403907e-11
      6.814175e-09     -4.565050e-09     -3.934850e-09
     -6.942261e-10      2.003744e-09     -5.907705e-11
      1.541336e-08     -1.541336e-08      3.835041e-24
     -1.630860e-08     -1.609996e-08      1.461361e-09
     -3.835811e-09      1.257534e-09      4.833153e-11
     -4.134991e-09      3.025206e-09      4.498904e-11
      4.134991e-09      3.025206e-09     -4.498904e-11
      3.835811e-09      1.257534e-09     -4.833153e-11
      4.620159e-09      3.485567e-10      1.822647e-10
     -4.620159e-09      3.485567e-10     -1.822647e-10
      4.565050e-09     -6.814175e-09      3.934850e-09
      2.778137e-09      6.724677e-09     -7.835267e-09
     -1.677089e-08      1.677089e-08     -8.373473e-24
      1.609996e-08      1.630860e-08     -1.461361e-09
     -4.565050e-09     -6.814175e-09     -3.934850e-09
      5.032753e-09     -2.153834e-09     -6.265023e-09
      3.025206e-09      4.134991e-09      4.498904e-11
      8.702096e-10      6.242861e-24      2.171349e-24
     -2.153834e-09      5.032753e-09      6.265023e-09
      2.074889e-09      3.146729e-09     -2.495950e-09
      2.074889e-09     -3.146729e-09      2.495950e-09
     -2.153834e-09     -5.032753e-09     -6.265023e-09
      6.942261e-10      2.003744e-09      5.907705e-11
      1.257534e-09      3.835811e-09      4.833153e-11
      1.677089e-08      1.677089e-08      1.937622e-23
      2.438347e-08      2.825023e-09     -1.388444e-10
      1.178750e-08      6.978412e-09      4.403907e-11
      4.628334e-23      6.106224e-09     -1.427412e-23
     -2.093819e-09     -1.223045e-10      3.825117e-09
     -3.146729e-09      2.074889e-09     -2.495950e-09
     -5.032753e-09     -2.153834e-09      6.265023e-09
     -6.814175e-09      4.565050e-09     -3.934850e-09
      6.724677e-09      2.778137e-09      7.835267e-09
      1.677089e-08     -1.677089e-08      2.222398e-23
      1.630860e-08      1.609996e-08      1.461361e-09
     -4.565050e-09      6.814175e-09      3.934850e-09
      5.032753e-09      2.153834e-09      6.265023e-09
     -5.032753e-09      2.153834e-09     -6.265023e-09
      4.565050e-09      6.814175e-09     -3.934850e-09
     -1.630860e-08      1.609996e-08     -1.461361e-09
      1.609996e-08     -1.630860e-08      1.461361e-09
     -3.485567e-10     -4.620159e-09     -1.822647e-10
     -3.485567e-10      4.620159e-09      1.822647e-10
     -1.257534e-09      3.835811e-09     -4.833153e-11
     -1.223045e-10     -2.093819e-09     -3.825117e-09
      2.093819e-09      1.223045e-10      3.825117e-09
     -2.093819e-09      1.223045e-10     -3.825117e-09
     -1.008185e-09      1.008185e-09     -2.430302e-23
      5.910735e-10     -5.910735e-10     -5.033559e-24
      5.910735e-10      5.910735e-10      8.841704e-24
     -6.978412e-09     -1.178750e-08     -4.403907e-11
      2.153834e-09     -5.032753e-09      6.265023e-09
     -2.074889e-09      3.146729e-09      2.495950e-09
      2.153834e-09      5.032753e-09     -6.265023e-09
     -6.106224e-09     -6.119443e-23     -6.578671e-24
      1.672456e-23     -6.106224e-09     -1.256281e-23
      1.178750e-08     -6.978412e-09     -4.403907e-11
      2.438347e-08     -2.825023e-09      1.388444e-10
      2.825023e-09     -2.438347e-08     -1.388444e-10
      6.978412e-09     -1.178750e-08      4.403907e-11
     -6.724677e-09     -2.778137e-09      7.835267e-09
     -2.003744e-09      6.942261e-10      5.907705e-11
      2.093819e-09     -1.223045e-10     -3.825117e-09
     -1.223045e-10      2.093819e-09      3.825117e-09
      2.003744e-09      6.942261e-10     -5.907705e-11
      1.324943e-23      8.702096e-10     -4.539421e-24
      5.428373e-24      2.727106e-09     -4.532431e-24
      2.727106e-09     -2.545988e-23      4.185380e-24
     -1.178750e-08      6.978412e-09     -4.403907e-11
      1.923195e-23      5.650047e-09     -1.307111e-23
     -2.825023e-09      2.438347e-08     -1.388444e-10
      1.630860e-08     -1.609996e-08     -1.461361e-09
      3.146729e-09      2.074889e-09      2.495950e-09
      5.650047e-09      4.132053e-23     -6.463800e-24
      3.025206e-09     -4.134991e-09     -4.498904e-11
     -1.541336e-08     -1.541336e-08     -3.474159e-23
     -1.609996e-08      1.630860e-08      1.461361e-09
     -5.910735e-10     -5.910735e-10     -3.650914e-23
      2.825023e-09      2.438347e-08      1.388444e-10
      6.978412e-09      1.178750e-08     -4.403907e-11
      6.106224e-09     -3.313927e-23     -6.135546e-24
     -1.609996e-08     -1.630860e-08     -1.461361e-09
     -1.541336e-08      1.541336e-08     -1.633682e-23
      6.942261e-10     -2.003744e-09     -5.907705e-11
     -2.778137e-09     -6.724677e-09     -7.835267e-09
      3.146729e-09     -2.074889e-09     -2.495950e-09
     -3.146729e-09     -2.074889e-09      2.495950e-09
      2.778137e-09     -6.724677e-09      7.835267e-09
     -6.724677e-09      2.778137e-09     -7.835267e-09
      6.814175e-09      4.565050e-09      3.934850e-09
      4.620159e-09     -3.485567e-10     -1.822647e-10
      2.003744e-09     -6.942261e-10      5.907705e-11
      3.496131e-23     -5.650047e-09     -1.661556e-23
     -2.438347e-08     -2.825023e-09     -1.388444e-10
     -1.677089e-08     -1.677089e-08      1.538039e-24
     -3.835811e-09     -1.257534e-09     -4.833153e-11
     -4.620159e-09     -3.485567e-10      1.822647e-10
      1.541336e-08      1.541336e-08      2.171349e-24
     -6.942261e-10     -2.003744e-09      5.907705e-11
     -1.257534e-09     -3.835811e-09      4.833153e-11
     -3.025206e-09     -4.134991e-09      4.498904e-11
     -8.702096e-10     -8.718536e-24     -1.717344e-24
     -8.426902e-24     -2.727106e-09     -1.682432e-23
     -4.134991e-09     -3.025206e-09     -4.498904e-11
     -1.178750e-08     -6.978412e-09      4.403907e-11
     -2.074889e-09     -3.146729e-09     -2.495950e-09
     -5.650047e-09      7.822924e-24     -4.346636e-24
     -3.025206e-09      4.134991e-09     -4.498904e-11
      1.008185e-09      1.008185e-09      1.821736e-23
     -2.438347e-08      2.825023e-09      1.388444e-10
      4.134991e-09     -3.025206e-09      4.498904e-11
      3.671260e-23     -8.702096e-10      3.544598e-24
      3.835811e-09     -1.257534e-09      4.833153e-11
     -2.003744e-09     -6.942261e-10     -5.907705e-11
     -2.825023e-09     -2.438347e-08      1.388444e-10
     -2.727106e-09     -2.338486e-25      6.737854e-24
Stress_Load_Case01            6         169 double
      1.355101e+01     -1.165089e+01      1.428327e+02      1.235097e+00     -5.026036e+02      1.695869e+01
      9.004794e+01     -9.004794e+01      8.686882e+01      6.958193e-15     -5.041291e+01     -5.041291e+01
      2.396251e+01     -1.241628e+01     -1.080195e+01      5.580420e+00     -8.971295e+01      6.943181e+02
     -8.627216e-01      2.388697e+00      1.348386e+02     -1.179021e+01     -3.294747e+01      9.797506e+01
     -8.627216e-01     -2.388697e+00      6.516143e+01      1.252566e+01     -1.844239e+01     -3.175084e+02
     -1.290717e+02      9.284193e-01      1.078900e+02     -4.795369e+00     -1.467421e+01      8.183132e+01
     -8.029749e+00     -9.918747e+01      8.895229e+01     -4.008258e+00     -7.598983e+01     -7.438335e+01
      1.086424e+01     -3.400179e+01      9.451706e+00      1.891544e+00      5.282721e+01      5.919887e+01
      7.028969e-01     -7.028969e-01      3.754890e+01      2.031607e-13      1.171333e+02      1.171333e+02
      1.028611e+01     -1.028611e+01      1.890341e+01     -3.896883e-13      2.469060e+02      2.469060e+02
     -7.541794e+00     -1.089366e+00      5.449105e+01     -1.932347e+00     -4.077656e+01      1.776041e+02
      3.400179e+01     -1.086424e+01      9.451706e+00     -1.891544e+00      5.919887e+01      5.282721e+01
      1.231161e+01      1.134736e+00      1.536346e+02      5.680539e+00     -8.216472e+01     -7.171261e+02
      1.282909e+02     -1.590100e+02      9.834150e+01     -9.281187e+00     -4.400143e+01     -9.954289e+01
      1.547366e+00     -2.151194e+02      1.535167e+02      6.766527e+00     -7.759466e+01     -6.471561e+01
      1.794253e+01      4.902839e+00      3.415930e+02     -7.951436e+00      6.357089e+02      6.362495e+02
     -2.388697e+00     -8.627216e-01      1.348386e+02     -1.179021e+01     -9.797506e+01     -3.294747e+01
      9.918747e+01      8.029749e+00      8.895229e+01      4.008258e+00     -7.438335e+01     -7.598983e+01
      5.599177e+01      7.541794e+00      4.675139e+01     -1.932347e+00      1.776041e+02     -3.897993e+01
     -9.284193e-01     -1.290717e+02      1.078900e+02     -4.795369e+00     -8.183132e+01     -1.467421e+01
      2.388697e+00     -8.627216e-01      6.516143e+01      1.252566e+01      3.175084e+02     -1.844239e+01
      1.241628e+01      2.396251e+01     -1.080195e+01      5.580420e+00     -6.943181e+02     -8.971295e+01
     -7.541794e+00     -5.599177e+01      4.675139e+01      1.932347e+00     -3.897993e+01      1.776041e+02
     -1.165089e+01     -1.355101e+01      1.428327e+02      1.235097e+00      1.695869e+01      5.026036e+02
     -2.151194e+02     -1.547366e+00      1.535167e+02      6.766527e+00     -6.471561e+01      7.759466e+01
      4.902839e+00     -1.794253e+01      3.415930e+02     -7.951436e+00      6.362495e+02     -6.357089e+02
      2.418264e+01     -2.418264e+01      1.243323e+01      9.661885e-13      2.425069e+02      2.425069e+02
     -1.794253e+01     -4.902839e+00      3.415930e+02     -7.951436e+00     -6.357089e+02     -6.362495e+02
      1.580816e+02      7.807278e-01      9.045153e+01      4.056911e+00      4.938621e+01     -2.864469e+01
      8.640707e-14     -2.462323e+01      8.120488e-14      1.134978e+00      4.797956e+02      2.450692e+01
      8.781649e+01     -8.627216e-01      5.758401e+01     -1.252566e+01      3.175084e+02     -2.119832e+01
     -1.134736e+00      1.231161e+01      1.536346e+02      5.680539e+00      7.171261e+02     -8.216472e+01
      1.613987e+02      1.274282e+02      1.331801e+02      2.080117e+00      6.866562e+01     -4.108491e+01
      8.463240e+00      2.446498e+02      1.592133e+01     -8.472662e+00     -6.486620e+02      6.360232e+02
      1.458260e+02     -1.656482e+01     -8.129579e+01     -6.544577e+00     -1.799565e+01     -8.602795e+01
      8.627216e-01     -8.781649e+01      5.758401e+01      1.252566e+01     -2.119832e+01      3.175084e+02
      1.089366e+00      7.541794e+00      5.449105e+01      1.932347e+00      1.776041e+02     -4.077656e+01
     -7.928263e+00      7.928263e+00      1.034690e+02     -3.950174e-13     -4.760128e+01     -4.760128e+01
     -2.462323e+01      8.336189e-14      1.786507e-13      1.134978e+00      2.450692e+01     -4.797956e+02
     -1.547366e+00      2.151194e+02      1.535167e+02      6.766527e+00      7.759466e+01      6.471561e+01
      1.547366e+00      2.151194e+02     -1.535167e+02      6.766527e+00      7.759466e+01     -6.471561e+01
      7.185884e+01      6.815558e+01      1.026366e+02      5.845533e-01     -7.833892e+00     -8.720696e-01
     -6.815558e+01     -7.185884e+01      1.026366e+02     -5.845533e-01     -8.720696e-01     -7.833892e+00
     -4.188581e+01      4.373310e+01      6.648544e+01      2.452029e-01     -3.290164e+00     -7.633321e+00
     -2.156804e+00      5.971742e+00      8.709643e+01      1.455450e+00     -7.291293e+00     -3.582890e+02
     -2.156804e+00     -5.971742e+00     -8.709643e+01      1.455450e+00      7.291293e+00     -3.582890e+02
     -1.951819e+00     -3.952040e+02      2.387116e+01      1.455450e+00     -2.660449e+02     -4.427894e+01
     -3.696406e+01     -3.696406e+01     -4.973294e+01     -1.314587e-15     -1.534745e+00      1.534745e+00
     -5.378357e+01     -5.378357e+01      7.509780e+01     -4.038069e-15     -3.596871e+00      3.596871e+00
     -5.378357e+01      5.378357e+01      7.509780e+01     -5.844729e-15      3.596871e+00      3.596871e+00
     -1.808528e+01     -1.628273e+01      2.512439e+01      3.353969e-01      1.857841e+00      3.359710e+00
      1.808528e+01     -1.628273e+01      2.512439e+01     -3.353969e-01      1.857841e+00     -3.359710e+00
      2.312522e+00     -4.345696e+01      3.780682e+01      3.996434e+00     -3.918699e+01     -7.508287e+02
     -4.188581e+01     -4.373310e+01      6.648544e+01     -2.452029e-01      3.290164e+00     -7.633321e+00
      3.226791e+02     -2.321048e+00      1.972492e+01     -1.455450e+00     -3.839185e+01     -2.736982e+02
     -3.203581e+02     -3.203581e+02      4.605502e+02     -5.227973e-16     -5.800521e-01      5.800521e-01
     -3.597637e+02      3.604563e+02      5.164647e+02     -1.679328e-01     -2.345153e+00      1.261264e-01
      3.952040e+02      1.951819e+00      2.387116e+01     -1.455450e+00     -4.427894e+01     -2.660449e+02
      1.545877e+00      3.016718e+01      8.193800e+01      6.479262e-13      3.007263e+02     -6.284931e+01
     -1.545877e+00      3.016718e+01     -8.193800e+01     -5.520029e-13      3.007263e+02      6.284931e+01
      3.952040e+02     -1.951819e+00      2.387116e+01      1.455450e+00      4.427894e+01     -2.660449e+02
      5.971742e+00     -2.156804e+00     -8.709643e+01      1.455450e+00      3.582890e+02      7.291293e+00
     -5.971742e+00     -2.156804e+00      8.709643e+01      1.455450e+00      3.582890e+02     -7.291293e+00
     -4.373310e+01     -4.188581e+01      6.648544e+01      2.452029e-01      7.633321e+00     -3.290164e+00
      7.185884e+01     -6.815558e+01      1.026366e+02     -5.845533e-01      7.833892e+00     -8.720696e-01
      3.882015e+02      3.882015e+02      5.560781e+02     -1.879674e-15     -2.062126e+00      2.062126e+00
      3.604563e+02     -3.597637e+02      5.164647e+02      1.679328e-01     -1.261264e-01      2.345153e+00
     -4.373310e+01      4.188581e+01      6.648544e+01     -2.452029e-01     -7.633321e+00     -3.290164e+00
     -1.067847e+02     -1.097261e+02      1.534318e+02     -7.671528e-01     -9.728146e+00     -2.593504e+00
     -3.016718e+01      1.545877e+00     -8.193800e+01      7.061018e-14      6.284931e+01      3.007263e+02
      1.969849e-13     -2.255130e+02      1.894355e+01     -2.672368e-13     -1.938195e+02      6.798577e-13
      1.097261e+02      1.067847e+02      1.534318e+02      7.671528e-01     -2.593504e+00     -9.728146e+00
      1.272747e+02     -1.260875e+02      1.773605e+02     -5.238483e-01     -2.177330e+00     -9.938943e+00
     -1.272747e+02     -1.260875e+02      1.773605e+02      5.238483e-01     -2.177330e+00      9.938943e+00
     -1.097261e+02      1.067847e+02      1.534318e+02     -7.671528e-01     -2.593504e+00      9.728146e+00
     -3.226791e+02     -2.321048e+00     -1.972492e+01     -1.455450e+00     -3.839185e+01      2.736982e+02
      1.951819e+00     -3.952040e+02      2.387116e+01     -1.455450e+00     -2.660449e+02      4.427894e+01
      3.882015e+02     -3.882015e+02      5.560781e+02     -2.054299e-15      2.062126e+00      2.062126e+00
      3.971575e+00     -4.309065e+01      5.377211e+02     -3.996434e+00      1.500620e+03      3.733507e+02
      4.345696e+01      2.312522e+00     -3.780682e+01     -3.996434e+00      7.508287e+02     -3.918699e+01
     -4.533802e-13     -1.336946e+02     -2.730381e-12     -2.864957e-13      1.049086e+03     -9.663381e-13
     -1.628273e+01      1.808528e+01      2.512439e+01      3.353969e-01      3.359710e+00     -1.857841e+00
      1.260875e+02      1.272747e+02      1.773605e+02     -5.238483e-01      9.938943e+00     -2.177330e+00
     -1.067847e+02      1.097261e+02      1.534318e+02      7.671528e-01      9.728146e+00     -2.593504e+00
      4.188581e+01      4.373310e+01      6.648544e+01     -2.452029e-01     -3.290164e+00      7.633321e+00
      6.815558e+01     -7.185884e+01      1.026366e+02      5.845533e-01     -8.720696e-01      7.833892e+00
     -3.882015e+02     -3.882015e+02      5.560781e+02     -2.353854e-15      2.062126e+00     -2.062126e+00
      3.597637e+02     -3.604563e+02      5.164647e+02     -1.679328e-01      2.345153e+00     -1.261264e-01
      4.373310e+01      4.188581e+01      6.648544e+01      2.452029e-01     -7.633321e+00      3.290164e+00
      1.067847e+02     -1.097261e+02      1.534318e+02      7.671528e-01     -9.728146e+00      2.593504e+00
      1.067847e+02      1.097261e+02      1.534318e+02     -7.671528e-01      9.728146e+00      2.593504e+00
      4.373310e+01     -4.188581e+01      6.648544e+01     -2.452029e-01      7.633321e+00      3.290164e+00
      3.597637e+02      3.604563e+02      5.164647e+02      1.679328e-01     -2.345153e+00     -1.261264e-01
      3.604563e+02      3.597637e+02     -5.164647e+02      1.679328e-01      1.261264e-01      2.345153e+00
      2.156804e+00     -5.971742e+00      8.709643e+01      1.455450e+00      7.291293e+00      3.582890e+02
      2.156804e+00      5.971742e+00     -8.709643e+01      1.455450e+00     -7.291293e+00      3.582890e+02
     -1.951819e+00     -3.952040e+02     -2.387116e+01     -1.455450e+00     -2.660449e+02     -4.427894e+01
     -1.808528e+01      1.628273e+01      2.512439e+01     -3.353969e-01     -1.857841e+00      3.359710e+00
      1.628273e+01     -1.808528e+01      2.512439e+01      3.353969e-01     -3.359710e+00      1.857841e+00
      1.628273e+01      1.808528e+01      2.512439e+01     -3.353969e-01      3.359710e+00      1.857841e+00
      5.378357e+01      5.378357e+01      7.509780e+01     -5.963564e-15      3.596871e+00     -3.596871e+00
      3.696406e+01      3.696406e+01     -4.973294e+01     -1.019936e-15      1.534745e+00     -1.534745e+00
     -3.696406e+01      3.696406e+01     -4.973294e+01      4.830066e-15      1.534745e+00      1.534745e+00
     -2.312522e+00     -4.345696e+01      3.780682e+01     -3.996434e+00     -3.918699e+01      7.508287e+02
     -1.097261e+02     -1.067847e+02      1.534318e+02      7.671528e-01      2.593504e+00      9.728146e+00
      1.272747e+02      1.260875e+02      1.773605e+02      5.238483e-01      2.177330e+00     -9.938943e+00
      1.097261e+02     -1.067847e+02      1.534318e+02     -7.671528e-01      2.593504e+00     -9.728146e+00
      1.336946e+02     -1.563944e-13      1.734463e-12      5.430981e-13     -5.684342e-12      1.049086e+03
     -1.405122e-13     -1.336946e+02     -2.037001e-12      7.405505e-15      1.049086e+03      2.273737e-12
      4.345696e+01     -2.312522e+00      3.780682e+01     -3.996434e+00     -7.508287e+02     -3.918699e+01
      3.971575e+00      4.309065e+01     -5.377211e+02     -3.996434e+00     -1.500620e+03      3.733507e+02
     -4.309065e+01     -3.971575e+00      5.377211e+02     -3.996434e+00      3.733507e+02     -1.500620e+03
      2.312522e+00     -4.345696e+01     -3.780682e+01     -3.996434e+00     -3.918699e+01     -7.508287e+02
     -6.815558e+01      7.185884e+01      1.026366e+02      5.845533e-01      8.720696e-01     -7.833892e+00
      2.321048e+00     -3.226791e+02     -1.972492e+01     -1.455450e+00     -2.736982e+02     -3.839185e+01
     -1.628273e+01     -1.808528e+01      2.512439e+01     -3.353969e-01     -3.359710e+00     -1.857841e+00
      1.808528e+01      1.628273e+01      2.512439e+01      3.353969e-01     -1.857841e+00     -3.359710e+00
     -2.321048e+00     -3.226791e+02      1.972492e+01     -1.455450e+00     -2.736982e+02      3.839185e+01
      2.255130e+02     -1.912017e-13      1.894355e+01     -7.441586e-13      1.397404e-13     -1.938195e+02
      2.811587e+00     -2.798491e-13     -4.990220e+01      1.276828e-12      1.952584e-12      2.190222e+02
      2.772194e-13     -2.811587e+00     -4.990220e+01      6.561871e-13      2.190222e+02      5.775157e-13
      4.345696e+01     -2.312522e+00     -3.780682e+01      3.996434e+00     -7.508287e+02     -3.918699e+01
      8.024440e-13      8.618129e+01      9.414270e-13      7.992869e+00     -3.001240e+03      2.273737e-13
      4.309065e+01      3.971575e+00      5.377211e+02     -3.996434e+00     -3.733507e+02      1.500620e+03
     -3.597637e+02     -3.604563e+02      5.164647e+02      1.679328e-01      2.345153e+00      1.261264e-01
      1.260875e+02     -1.272747e+02      1.773605e+02      5.238483e-01     -9.938943e+00     -2.177330e+00
      8.618129e+01     -3.836041e-13     -7.124364e-13      7.992869e+00      1.136868e-12      3.001240e+03
     -3.016718e+01     -1.545877e+00      8.193800e+01      1.891820e-13     -6.284931e+01      3.007263e+02
     -3.203581e+02      3.203581e+02      4.605502e+02      1.332831e-16      5.800521e-01      5.800521e-01
      3.604563e+02      3.597637e+02      5.164647e+02     -1.679328e-01      1.261264e-01      2.345153e+00
     -3.696406e+01      3.696406e+01      4.973294e+01      3.028501e-15      1.534745e+00      1.534745e+00
     -4.309065e+01      3.971575e+00     -5.377211e+02     -3.996434e+00     -3.733507e+02     -1.500620e+03
     -2.312522e+00     -4.345696e+01     -3.780682e+01      3.996434e+00     -3.918699e+01      7.508287e+02
      1.336946e+02     -1.747486e-13      1.532017e-12      2.527599e-13      5.286438e-12      1.049086e+03
     -3.604563e+02      3.597637e+02      5.164647e+02      1.679328e-01      1.261264e-01     -2.345153e+00
      3.203581e+02      3.203581e+02      4.605502e+02      2.447883e-15      5.800521e-01     -5.800521e-01
     -3.226791e+02      2.321048e+00      1.972492e+01     -1.455450e+00      3.839185e+01      2.736982e+02
     -7.185884e+01      6.815558e+01      1.026366e+02     -5.845533e-01     -7.833892e+00      8.720696e-01
     -1.260875e+02     -1.272747e+02      1.773605e+02     -5.238483e-01     -9.938943e+00      2.177330e+00
     -1.260875e+02      1.272747e+02      1.773605e+02      5.238483e-01      9.938943e+00      2.177330e+00
     -7.185884e+01     -6.815558e+01      1.026366e+02      5.845533e-01      7.833892e+00      8.720696e-01
      6.815558e+01      7.185884e+01      1.026366e+02     -5.845533e-01      8.720696e-01      7.833892e+00
      4.188581e+01     -4.373310e+01      6.648544e+01      2.452029e-01      3.290164e+00      7.633321e+00
     -5.971742e+00     -2.156804e+00     -8.709643e+01     -1.455450e+00      3.582890e+02     -7.291293e+00
     -2.321048e+00      3.226791e+02     -1.972492e+01     -1.455450e+00      2.736982e+02      3.839185e+01
      1.036645e-13     -8.618129e+01      9.666605e-14      7.992869e+00      3.001240e+03     -5.115908e-13
     -3.971575e+00      4.309065e+01      5.377211e+02     -3.996434e+00     -1.500620e+03     -3.733507e+02
     -3.882015e+02      3.882015e+02      5.560781e+02     -5.441911e-15     -2.062126e+00     -2.062126e+00
      3.952040e+02     -1.951819e+00     -2.387116e+01     -1.455450e+00      4.427894e+01     -2.660449e+02
      5.971742e+00     -2.156804e+00      8.709643e+01     -1.455450e+00      3.582890e+02      7.291293e+00
     -3.203581e+02      3.203581e+02     -4.605502e+02      2.664535e-15      5.800521e-01      5.800521e-01
      3.226791e+02      2.321048e+00     -1.972492e+01     -1.455450e+00      3.839185e+01     -2.736982e+02
      1.951819e+00     -3.952040e+02     -2.387116e+01      1.455450e+00     -2.660449e+02      4.427894e+01
     -3.016718e+01      1.545877e+00      8.193800e+01      8.171241e-14      6.284931e+01      3.007263e+02
      1.439561e-13     -2.255130e+02     -1.894355e+01      4.482629e-13     -1.938195e+02     -3.527111e-12
      2.811587e+00     -3.007780e-13      4.990220e+01     -7.416432e-13     -2.185760e-12      2.190222e+02
     -1.545877e+00      3.016718e+01      8.193800e+01      2.229328e-13      3.007263e+02      6.284931e+01
      4.345696e+01      2.312522e+00      3.780682e+01      3.996434e+00      7.508287e+02     -3.918699e+01
     -1.272747e+02      1.260875e+02      1.773605e+02     -5.238483e-01      2.177330e+00      9.938943e+00
     -8.618129e+01      1.032603e-13      5.153978e-14      7.992869e+00     -1.364242e-12     -3.001240e+03
     -3.016718e+01     -1.545877e+00     -8.193800e+01      2.975398e-14     -6.284931e+01      3.007263e+02
      5.378357e+01     -5.378357e+01      7.509780e+01     -2.436057e-15     -3.596871e+00     -3.596871e+00
     -3.971575e+00     -4.309065e+01     -5.377211e+02     -3.996434e+00      1.500620e+03     -3.733507e+02
      1.545877e+00      3.016718e+01     -8.193800e+01     -2.740030e-13      3.007263e+02     -6.284931e+01
      2.255130e+02      1.405430e-13     -1.894355e+01     -2.240664e-13     -1.685869e-12     -1.938195e+02
      3.952040e+02      1.951819e+00     -2.387116e+01      1.455450e+00     -4.427894e+01     -2.660449e+02
      2.321048e+00      3.226791e+02      1.972492e+01     -1.455450e+00      2.736982e+02     -3.839185e+01
      4.309065e+01     -3.971575e+00     -5.377211e+02     -3.996434e+00      3.733507e+02      1.500620e+03
     -2.940178e-14     -2.811587e+00      4.990220e+01     -6.002225e-13      2.190222e+02      4.695429e-13
